 &CONTROL
                 calculation = 'scf' ,
                      outdir = './tmp_subs/' ,
                  pseudo_dir = '/home/deleted/pseudo_psl' ,
                      prefix = 'GF_op_subs' ,
                   verbosity = 'high' ,
               etot_conv_thr = 1.0D-5 ,
               forc_conv_thr = 4.0D-4 ,
                       nstep = 1000 ,
                    dipfield = .true. ,
 /
 &SYSTEM
                       ibrav = 4,
                           A = 9.88 ,
                           C = 15 ,
                         nat = 31,
                        ntyp = 2,
                     ecutwfc = 40.424239707 ,
                     ecutrho = 404.24239707 ,
                 occupations = 'smearing' ,
                     degauss = 0.01 ,
				   input_dft = 'vdW-DF' ,
 /
 &ELECTRONS
            electron_maxstep = 50001,
                    conv_thr = 1.0D-6 ,
                 mixing_mode = 'local-TF' ,
                 mixing_beta = 0.5 ,
 /
ATOMIC_SPECIES
    C   12.01100  C.revpbe-n-kjpaw_psl.0.1.UPF 
    F   18.99800  F.revpbe-n-kjpaw_psl.0.1.UPF 
ATOMIC_POSITIONS crystal 
C       -0.006905951   0.001728728   0.002802828
C        0.239779224  -0.003019254   0.009821800
C        0.491043603   0.001794535   0.016358727
C        0.741746335   0.003027313   0.008418067
C       -0.005788588   0.252537759   0.005475375
C        0.076471869   0.168462777   0.007358275
C        0.244138439   0.249821070   0.008573596
C        0.321376248   0.160591884   0.009013922
C        0.487307054   0.249220957   0.007725485
C        0.573664994   0.168095970   0.008731556
C        0.740024874   0.252470331   0.007476375
C        0.825387537   0.169516727   0.006267345
C       -0.008822163   0.500434717   0.006052871
C        0.080388460   0.418502843   0.008507478
C        0.254976814   0.501380688   0.016217572
C        0.336027916   0.412150658   0.010511322
C        0.558240508   0.411856875   0.004073077
C        0.727579738   0.500150348  -0.002798307
C        0.819509149   0.418355421   0.003528329
C       -0.010414272   0.749099629   0.001089083
C        0.074156822   0.666026432   0.007133209
C        0.241497539   0.748482548   0.015798256
C        0.326672103   0.668019487   0.027745778
C        0.486892079   0.762449979   0.055210506
F        0.612511996   0.691398002  -0.067198269
C        0.756753436   0.762312134  -0.027935531
C        0.823051711   0.668467737  -0.011443095
C        0.072864814   0.915127409   0.003985083
C        0.324127861   0.915514467   0.015828025
C        0.577401788   0.922440744   0.026540397
C        0.827128119   0.921549465  -0.006410826
K_POINTS automatic 
  16 16 1   0 0 0 

