 &CONTROL
                 calculation = 'relax' ,
                      outdir = './tmp/' ,
                  pseudo_dir = '/home/deleted/pseudo_psl' ,
                      prefix = 'GCl_op' ,
                   verbosity = 'high' ,
               etot_conv_thr = 1.0D-5 ,
               forc_conv_thr = 4.0D-4 ,
                       nstep = 1000 ,
                    dipfield = .true. ,
 /
 &SYSTEM
                       ibrav = 4,
                           A = 9.88 ,
                           C = 15 ,
                         nat = 34,
                        ntyp = 4,
                     ecutwfc = 40.424239707 ,
                     ecutrho = 404.24239707 ,
                 occupations = 'smearing' ,
                     degauss = 0.01 ,
				   input_dft = 'vdW-DF' ,
 /
 &ELECTRONS
            electron_maxstep = 50001,
                    conv_thr = 1.0D-6 ,
                 mixing_mode = 'local-TF' ,
                 mixing_beta = 0.5 ,
 /
 &IONS
                ion_dynamics = 'bfgs' ,
 /
ATOMIC_SPECIES
    C   12.01100  C.revpbe-n-kjpaw_psl.0.1.UPF 
   Cl   35.45200  Cl.revpbe-n-kjpaw_psl.0.3.0.UPF 
    O   15.99940  O.revpbe-n-kjpaw_psl.0.1.UPF 
    H   1.008000  H.revpbe-kjpaw_psl.0.1.UPF
ATOMIC_POSITIONS crystal 
C        0.003140497   0.007756872  -0.006566755
C        0.254192213   0.009359279   0.002292533
C        0.500548266   0.005097715  -0.007408565
C        0.750981182   0.006489555   0.001189000
C       -0.000279949   0.255375956  -0.007726565
C        0.084799769   0.173835899  -0.001504195
C        0.245244905   0.252822107   0.026067380
C        0.337788863   0.173945086   0.024695600
C        0.505051081   0.250636816   0.027484238
C        0.584300328   0.170283927   0.002228291
C        0.751313670   0.254788593  -0.004128921
C        0.833561555   0.172401176  -0.004799126
C       -0.000091123   0.505863394  -0.018752756
C        0.081911046   0.420903886  -0.012607543
C        0.242579671   0.501850252   0.012567416
C        0.290795299   0.406077683   0.058242442
C        0.616124567   0.407900201   0.064208757
C        0.752651935   0.504492502   0.006954799
C        0.832855164   0.421656733  -0.011441605
C        0.002204173   0.757281280  -0.009808206
C        0.083877175   0.672750122  -0.015096231
C        0.250539874   0.755731764  -0.011180741
C        0.330333587   0.670015549   0.006628779
C        0.492689249   0.761600071   0.014938390
Cl       0.591652674   0.681081286   0.071743743
C        0.765865077   0.764570135   0.010377131
C        0.834420885   0.671485598   0.001051567
C        0.086428890   0.924720617  -0.004920173
C        0.334814249   0.923217115  -0.007110148
C        0.584107333   0.922631726  -0.000532867
C        0.837359381   0.926402671   0.000330166
O        0.607061016   0.443958665   0.143838793
O        0.352056165   0.458833914   0.141714459
H        0.377716202   0.384978404   0.169863499
K_POINTS automatic 
  4 4 1   0 0 0 

