 &CONTROL
                 calculation = 'relax' ,
                      outdir = './tmp/' ,
                  pseudo_dir = '/home/deleted/pseudo_psl' ,
                      prefix = 'GBr_op' ,
                   verbosity = 'high' ,
               etot_conv_thr = 1.0D-5 ,
               forc_conv_thr = 4.0D-4 ,
                       nstep = 1000 ,
                    dipfield = .true. ,
 /
 &SYSTEM
                       ibrav = 4,
                           A = 9.88 ,
                           C = 15 ,
                         nat = 33,
                        ntyp = 3,
                     ecutwfc = 40.424239707 ,
                     ecutrho = 404.24239707 ,
                 occupations = 'smearing' ,
                     degauss = 0.01 ,
				   input_dft = 'vdW-DF' ,
 /
 &ELECTRONS
            electron_maxstep = 50001,
                    conv_thr = 1.0D-6 ,
                 mixing_mode = 'local-TF' ,
                 mixing_beta = 0.5 ,
 /
 &IONS
                ion_dynamics = 'bfgs' ,
 /
ATOMIC_SPECIES
    C   12.01100  C.revpbe-n-kjpaw_psl.0.1.UPF 
   Br   79.90350  Br.revpbe-n-kjpaw_psl.0.2.UPF 
    O   15.99940  O.revpbe-n-kjpaw_psl.0.1.UPF 
ATOMIC_POSITIONS crystal 
C       -0.009889281   0.016062632  -0.006997471
C        0.235637595   0.005197913  -0.004682041
C        0.489549098   0.017234162   0.003472088
C        0.750290915   0.031038928   0.001090032
C       -0.003264102   0.270964971  -0.009547544
C        0.075368322   0.182919812  -0.008844897
C        0.243098688   0.260784316  -0.009232236
C        0.316710815   0.167956881  -0.006674059
C        0.481459226   0.259669191  -0.006503667
C        0.570955553   0.182625855  -0.002509155
C        0.738544113   0.271716491  -0.004705359
C        0.828518220   0.191955507  -0.004954256
C       -0.009680420   0.516090744  -0.009347385
C        0.083457254   0.435396880  -0.010585052
C        0.261386218   0.514418647  -0.009593209
C        0.343346822   0.421950447  -0.009694045
C        0.544221600   0.422747747  -0.008713212
C        0.714757840   0.514180320  -0.008832538
C        0.814112320   0.435076436  -0.008389318
C       -0.020896503   0.761174379  -0.006318991
C        0.072610060   0.679669685  -0.007007366
C        0.246720030   0.758649053  -0.003533536
C        0.338644322   0.678393533  -0.003667107
C        0.518087099   0.770917623   0.016322178
Br       0.639419465   0.470553793   0.234136755
C        0.725906366   0.775372550  -0.004327258
C        0.802150449   0.683424184  -0.006898844
C        0.066856200   0.925743504  -0.006261365
C        0.325067541   0.926729136  -0.000510497
C        0.583200101   0.941615921   0.016458552
C        0.822911162   0.938983206  -0.004007853
O        0.824867735   0.538958350   0.181303105
O        0.545191358   0.840947762   0.101697275
K_POINTS automatic 
  4 4 1   0 0 0 

