 &CONTROL
                 calculation = 'scf' ,
                      outdir = './tmp/' ,
                  pseudo_dir = '/home/deleted/pseudo_psl' ,
                      prefix = 'GF_ip' ,
                   verbosity = 'high' ,
               etot_conv_thr = 1.0D-5 ,
               forc_conv_thr = 4.0D-4 ,
                       nstep = 1000 ,
                    dipfield = .true. ,
 /
 &SYSTEM
                       ibrav = 4,
                           A = 9.88 ,
                           C = 15 ,
                         nat = 33,
                        ntyp = 3,
                     ecutwfc = 40.424239707 ,
                     ecutrho = 404.24239707 ,
                 occupations = 'smearing' ,
                     degauss = 0.01 ,
				   input_dft = 'vdW-DF' ,
    nspin = 2 ,
    starting_magnetization(1) = 0.5,
    starting_magnetization(2) = 0.5,
    starting_magnetization(3) = 0.5,
 /
 &ELECTRONS
            electron_maxstep = 50001,
                    conv_thr = 1.0D-6 ,
                 mixing_mode = 'local-TF' ,
                 mixing_beta = 0.5 ,
 /
ATOMIC_SPECIES
    C   12.01100  C.revpbe-n-kjpaw_psl.0.1.UPF 
    F   18.99800  F.revpbe-n-kjpaw_psl.0.1.UPF 
    O   15.99940  O.revpbe-n-kjpaw_psl.0.1.UPF 
ATOMIC_POSITIONS (crystal)
C       -0.004211322  -0.000746578  -0.005067324
C        0.242573515  -0.005333856   0.002217249
C        0.493799501  -0.000764270   0.009006175
C        0.744625972   0.000575207   0.001013532
C       -0.003049169   0.250024194  -0.001623292
C        0.079114125   0.165917333  -0.000065855
C        0.246783518   0.247235586   0.001294255
C        0.324144302   0.158190536   0.001661454
C        0.490193711   0.246816506   0.000589598
C        0.576521058   0.165604615   0.001709752
C        0.742817617   0.250032412   0.000695661
C        0.828091776   0.166869199  -0.000698999
C       -0.005997730   0.498068536  -0.000895943
C        0.083086984   0.415981171   0.001620188
C        0.257449011   0.498689961   0.009267554
C        0.338367211   0.409574029   0.003447773
C        0.561299632   0.409323350  -0.003107912
C        0.730519732   0.497741647  -0.009948836
C        0.822328140   0.415901069  -0.003351087
C       -0.007575111   0.746746237  -0.006448878
C        0.076932324   0.663571024  -0.000176626
C        0.244348072   0.746223846   0.008235916
C        0.329635904   0.665711908   0.020508889
C        0.489649639   0.759865047   0.047271867
F        0.615229122   0.688580203  -0.075218856
C        0.759555021   0.759877798  -0.035981924
C        0.825814235   0.666113469  -0.018891619
C        0.075683839   0.912757438  -0.003829256
C        0.326921989   0.913057554   0.008227525
C        0.579991114   0.919665730   0.019276124
C        0.829827871   0.919136989  -0.014502685
O        0.537920539   0.686375968   0.103630847
O        0.686738231   0.771971385   0.140134731
K_POINTS automatic 
  16 16 1   0 0 0 

