 &CONTROL
                 calculation = 'bands' ,
                      outdir = './tmp/' ,
                  pseudo_dir = '/home/deleted/pseudo_psl' ,
                      prefix = 'MVG_tx' ,
                    dipfield = .true. ,
                   verbosity = 'high',
                       nstep = 1000,
               forc_conv_thr = 4.0D-4,
               etot_conv_thr = 1.0D-5
 /
 &SYSTEM
                       ibrav = 4,
                           A = 9.88 ,
                           C = 15 ,
                         nat = 33,
                        ntyp = 2,
                     ecutwfc = 40.424239707 ,
                     ecutrho = 404.24239707 ,
                 occupations = 'tetrahedra' ,
                     degauss = 0.01 ,
				   input_dft = 'vdW-DF' ,
    nspin = 2 ,
    starting_magnetization(1) = 0.5,
	starting_magnetization(2) = 0.5,
 /
 &ELECTRONS
            electron_maxstep = 50001,
                    conv_thr = 1.0D-6 ,
                 mixing_mode = 'local-TF' ,
                 mixing_beta = 0.5 ,
 /
 &IONS
                ion_dynamics = 'bfgs' ,
 /
ATOMIC_SPECIES
    C   12.01100  C.revpbe-n-kjpaw_psl.0.1.UPF 
    O   15.99940  O.revpbe-n-kjpaw_psl.0.1.UPF 
ATOMIC_POSITIONS crystal 
C        0.003808432   0.007087671   0.000928535
C        0.252310337   0.004620673  -0.006372065
C        0.503279240   0.007087671   0.000928535
C        0.755494759   0.010989516   0.012893286
C        0.004929573   0.257972049  -0.001227597
C        0.086114192   0.173034560  -0.004093663
C        0.251687473   0.253268498  -0.011781695
C        0.334408975   0.168817950  -0.012448689
C        0.501581024   0.253268498  -0.011781695
C        0.586920366   0.173034560  -0.004093663
C        0.753042476   0.257972049  -0.001227597
C        0.837419603   0.174839208   0.003215408
C        0.003459041   0.506918080   0.000278677
C        0.089555849   0.424015525  -0.001123663
C        0.258934279   0.506389919  -0.001239572
C        0.334494402   0.416830395  -0.013374860
C        0.582335992   0.416830395  -0.013374860
C        0.747455640   0.506389919  -0.001239572
C        0.834459675   0.424015525  -0.001123663
C        0.001017268   0.755709529   0.000639475
C        0.086207101   0.672414203  -0.001583672
C        0.254692262   0.755709529   0.000639475
C        0.341534483   0.674830636   0.009227754
C        0.504453863   0.763179305   0.025983962
C        0.599662669   0.699325340   0.065933679
C        0.758725442   0.763179305   0.025983962
C        0.833296153   0.674830636   0.009227754
C        0.085153956   0.922073771  -0.001606051
C        0.336919814   0.922073771  -0.001606051
C        0.587368545   0.926477220   0.013603914
C        0.839108674   0.926477220   0.013603914
O        0.559040779   0.618081557   0.133881098
O        0.495618667   0.491237335  -0.027670796
K_POINTS crystal_b 
4
0.0000000000    0.0000000000    0.0000000000 17
0.0000000000    0.5000000000    0.0000000000 10
0.3333333333    0.3333333333    0.0000000000 20
0.0000000000    0.0000000000    0.0000000000 1

