 &CONTROL
                 calculation = 'relax' ,
                      outdir = './tmp/' ,
                  pseudo_dir = '/home/deleted/pseudo_psl' ,
                      prefix = 'GBr_ip' ,
                   verbosity = 'high' ,
               etot_conv_thr = 1.0D-5 ,
               forc_conv_thr = 4.0D-4 ,
                       nstep = 1000 ,
                    dipfield = .true. ,
 /
 &SYSTEM
                       ibrav = 4,
                           A = 9.88 ,
                           C = 15 ,
                         nat = 32,
                        ntyp = 3,
                     ecutwfc = 40.424239707 ,
                     ecutrho = 404.24239707 ,
                 occupations = 'smearing' ,
                     degauss = 0.01 ,
				   input_dft = 'vdW-DF' ,
    nspin = 2 ,
    starting_magnetization(1) = 0.5,
    starting_magnetization(2) = 0.5,
    starting_magnetization(3) = 0.5,
 /
 &ELECTRONS
            electron_maxstep = 50001,
                    conv_thr = 1.0D-6 ,
                 mixing_mode = 'local-TF' ,
                 mixing_beta = 0.5 ,
 /
 &IONS
                ion_dynamics = 'bfgs' ,
 /
ATOMIC_SPECIES
    C   12.01100  C.revpbe-n-kjpaw_psl.0.1.UPF 
   Br   79.90350  Br.revpbe-n-kjpaw_psl.0.2.UPF 
    O   15.99940  O.revpbe-n-kjpaw_psl.0.1.UPF 
ATOMIC_POSITIONS crystal 
C        0.000804030   0.008330055   0.002624621
C        0.250193649   0.009790852   0.004818464
C        0.496645848   0.003722245  -0.002786071
C        0.746671426   0.003367778  -0.011699790
C       -0.004808051   0.254320242  -0.001297696
C        0.081937293   0.174625104  -0.001627891
C        0.249336033   0.260448867  -0.007016512
C        0.334223949   0.176610012   0.006166007
C        0.498265206   0.252906451   0.020585162
C        0.580015575   0.169875596   0.008780459
C        0.746689755   0.253009421   0.009000811
C        0.827845223   0.169120565  -0.000703215
C       -0.005100443   0.505036681   0.007421046
C        0.074789434   0.420103857  -0.000777559
C        0.238325899   0.502448963  -0.015796639
C        0.314917316   0.419661831  -0.027861639
C        0.587001535   0.415024903   0.056086212
C        0.749704165   0.505426602   0.024454113
C        0.829346979   0.420760347   0.013194636
C        0.001705776   0.758438714   0.013487855
C        0.080408708   0.672173770   0.010220614
C        0.244948478   0.756625781   0.000525225
C        0.323039838   0.671815410  -0.015741319
C        0.482992168   0.755727914  -0.025817114
Br       0.560756533   0.615989429  -0.063713254
C        0.768032853   0.762366774  -0.010907191
C        0.835363726   0.673476301   0.013954462
C        0.083526693   0.925105838   0.006214249
C        0.330911260   0.923277297   0.001992852
C        0.579326403   0.919016609  -0.015622864
C        0.834675896   0.923995084  -0.007409206
O        0.527506842   0.467400709   0.109251170
K_POINTS automatic 
  4 4 1   0 0 0 

