 &CONTROL
                 calculation = 'bands' ,
                      outdir = './tmp/' ,
                  pseudo_dir = '/home/deleted/pseudo_psl' ,
                      prefix = 'GF_op' ,
                   verbosity = 'high' ,
               etot_conv_thr = 1.0D-5 ,
               forc_conv_thr = 4.0D-4 ,
                       nstep = 1000 ,
                    dipfield = .true. ,
 /
 &SYSTEM
                       ibrav = 4,
                           A = 9.88 ,
                           C = 15 ,
                         nat = 33,
                        ntyp = 3,
                     ecutwfc = 40.424239707 ,
                     ecutrho = 404.24239707 ,
                 occupations = 'tetrahedra' ,
                     degauss = 0.01 ,
				   input_dft = 'vdW-DF' ,
 /
 &ELECTRONS
            electron_maxstep = 50001,
                    conv_thr = 1.0D-6 ,
                 mixing_mode = 'local-TF' ,
                 mixing_beta = 0.5 ,
 /
ATOMIC_SPECIES
    C   12.01100  C.revpbe-n-kjpaw_psl.0.1.UPF 
    F   18.99800  F.revpbe-n-kjpaw_psl.0.1.UPF 
    O   15.99940  O.revpbe-n-kjpaw_psl.0.1.UPF 
ATOMIC_POSITIONS crystal 
C       -0.004040669   0.001211620  -0.002969081
C        0.242689592  -0.003500326   0.003961187
C        0.493904273   0.001273604   0.010699636
C        0.744615597   0.002470840   0.002849366
C       -0.002965782   0.251997688   0.000200076
C        0.079322100   0.167934081   0.001767699
C        0.246991920   0.249315120   0.002906177
C        0.324256456   0.160103615   0.003210352
C        0.490166419   0.248709349   0.002141548
C        0.576528952   0.167582857   0.003241099
C        0.742868725   0.251935718   0.002222333
C        0.828233042   0.168960517   0.000962990
C       -0.006018159   0.499914253   0.000860338
C        0.083184799   0.417951525   0.003324641
C        0.257775679   0.500829997   0.010889765
C        0.338874312   0.411628139   0.005064710
C        0.561069113   0.411364160  -0.001355059
C        0.730405138   0.499670187  -0.008146445
C        0.822320531   0.417843289  -0.001663487
C       -0.007565920   0.748617937  -0.004496603
C        0.076956176   0.665517301   0.001731520
C        0.244315791   0.747987435   0.010246457
C        0.329452479   0.667506677   0.022239071
C        0.489726375   0.761959929   0.049515488
F        0.615459751   0.690764332  -0.073126754
C        0.759594771   0.761765070  -0.033726979
C        0.825881582   0.667970050  -0.017003807
C        0.075773994   0.914651379  -0.001839439
C        0.327004876   0.915018528   0.010118727
C        0.580239146   0.921890414   0.020836956
C        0.829974798   0.921012988  -0.012167532
O        0.537351273   0.690570666   0.106563182
O        0.688275409   0.775211463   0.141376448
K_POINTS crystal_b 
4
0.0000000000    0.0000000000    0.0000000000 17
0.0000000000    0.5000000000    0.0000000000 10
0.3333333333    0.3333333333    0.0000000000 20
0.0000000000    0.0000000000    0.0000000000 1

