 &CONTROL
                 calculation = 'bands' ,
                      outdir = './tmp/' ,
                  pseudo_dir = '/home/deleted/pseudo_psl' ,
                      prefix = 'GBr_ip' ,
                   verbosity = 'high' ,
               etot_conv_thr = 1.0D-5 ,
               forc_conv_thr = 4.0D-4 ,
                       nstep = 1000 ,
                    dipfield = .true. ,
 /
 &SYSTEM
                       ibrav = 4,
                           A = 9.88 ,
                           C = 15 ,
                         nat = 34,
                        ntyp = 4,
                     ecutwfc = 40.424239707 ,
                     ecutrho = 404.24239707 ,
                 occupations = 'tetrahedra' ,
                     degauss = 0.01 ,
				   input_dft = 'vdW-DF' ,
    nspin = 2 ,
    starting_magnetization(1) = 0.5,
    starting_magnetization(2) = 0.5,
    starting_magnetization(3) = 0.5,
 /
 &ELECTRONS
            electron_maxstep = 50001,
                    conv_thr = 1.0D-6 ,
                 mixing_mode = 'local-TF' ,
                 mixing_beta = 0.5 ,
 /
ATOMIC_SPECIES
    C   12.01100  C.revpbe-n-kjpaw_psl.0.1.UPF 
   Br   79.90350  Br.revpbe-n-kjpaw_psl.0.2.UPF 
    O   15.99940  O.revpbe-n-kjpaw_psl.0.1.UPF 
    H   1.008000  H.revpbe-kjpaw_psl.0.1.UPF
ATOMIC_POSITIONS (crystal)
C        0.006084223   0.017201519   0.004162033
C        0.258686765   0.024055256   0.007169307
C        0.504428312   0.017262562   0.004056392
C        0.752577037   0.011835064  -0.002063708
C        0.002300986   0.264195564   0.009504729
C        0.088071153   0.184391190   0.004256823
C        0.255845621   0.271619390  -0.003431489
C        0.341595288   0.189836561  -0.002268084
C        0.509121941   0.271617744  -0.003789853
C        0.589650552   0.184432184   0.003955880
C        0.755221990   0.264199336   0.009318445
C        0.835464856   0.177605408   0.007387627
C        0.005041376   0.516736988   0.019729266
C        0.082898083   0.430814331   0.014525135
C        0.245903986   0.515845395   0.003377358
C        0.322674682   0.434924493  -0.010877538
C        0.605661427   0.434926210  -0.011210808
C        0.763383851   0.515817150   0.002853658
C        0.841275015   0.430814168   0.014238593
C        0.011269035   0.770741557   0.014102996
C        0.089068266   0.684801209   0.019617300
C        0.252857762   0.770775631   0.014384760
C        0.330828468   0.685764290   0.003392129
C        0.488589516   0.766638016  -0.010616436
Br       0.546953182   0.600570753  -0.036171368
C        0.771431615   0.766581343  -0.011075299
C        0.848319304   0.685702573   0.002881305
C        0.091853951   0.937398131   0.009227711
C        0.338869871   0.937429581   0.009263680
C        0.585005324   0.930030559  -0.003467093
C        0.838266541   0.929929794  -0.003464360
O        0.668285907   0.630579034   0.202465887
O        0.522892952   0.569485843   0.158679321
H        0.677579697   0.721860083   0.234185001
K_POINTS automatic 
  20 20 1   0 0 0 

