 &CONTROL
                 calculation = 'nscf' ,
                      outdir = './tmp/' ,
                  pseudo_dir = '/home/deleted/pseudo_psl' ,
                      prefix = 'PG_tlh' ,
                    dipfield = .true. ,
                   verbosity = 'high',
                       nstep = 1000,
               forc_conv_thr = 4.0D-4,
               etot_conv_thr = 1.0D-5
 /
 &SYSTEM
                       ibrav = 4,
                           A = 9.88 ,
                           C = 15 ,
                         nat = 34,
                        ntyp = 2,
                     ecutwfc = 40.424239707 ,
                     ecutrho = 404.24239707 ,
                 occupations = 'tetrahedra' ,
                     degauss = 0.01 ,
				   input_dft = 'vdW-DF' ,
    nspin = 2 ,
    starting_magnetization(1) = 0.5,
	starting_magnetization(2) = 0.5,
 /
 &ELECTRONS
            electron_maxstep = 50001,
                    conv_thr = 1.0D-6 ,
                 mixing_mode = 'local-TF' ,
                 mixing_beta = 0.5 ,
 /
ATOMIC_SPECIES
    C   12.01100  C.revpbe-n-kjpaw_psl.0.1.UPF 
    O   15.99940  O.revpbe-n-kjpaw_psl.0.1.UPF 
ATOMIC_POSITIONS crystal 
C        0.000013191   0.000026198  -0.005926770
C        0.250012967   0.000025527  -0.005927593
C        0.499993925  -0.000043720  -0.006080281
C        0.749962686  -0.000042964  -0.006079423
C        0.000034817   0.250038851  -0.006126711
C        0.083370204   0.166708457  -0.006079258
C        0.250039764   0.250080247  -0.006372074
C        0.333339113   0.166708948  -0.006079984
C        0.500003733   0.250038153  -0.006127569
C        0.583319790   0.166640176  -0.005927744
C        0.749988359   0.249975748  -0.005911381
C        0.833319370   0.166639648  -0.005926969
C        0.000025472   0.500007546  -0.006143821
C        0.083396240   0.416685026  -0.006443273
C        0.250011640   0.499958978  -0.006978008
C        0.333349502   0.416697611  -0.007051412
C        0.499946549   0.499958894  -0.006978122
C        0.583288671   0.416684946  -0.006443645
C        0.749983164   0.500007562  -0.006143838
C        0.833353440   0.416708416  -0.005981897
C       -0.000020914   0.749956936  -0.005981638
C        0.083349669   0.666658389  -0.006143942
C        0.250044327   0.749980038  -0.006443906
C        0.333386072   0.666707247  -0.006978419
C        0.499983280   0.749967538  -0.007051809
C        0.583321599   0.666706882  -0.006978021
C        0.749936082   0.749980519  -0.006443088
C        0.833307823   0.666657987  -0.006143525
C        0.083344967   0.916690087  -0.005911139
C        0.333329183   0.916628068  -0.006127734
C        0.583293073   0.916586236  -0.006372492
C        0.833298400   0.916627206  -0.006126591
O        0.480493261   0.583343135   0.200715355
O        0.352847241   0.583338821   0.200716722
K_POINTS automatic 
  20 20 1   0 0 0 

