 &CONTROL
                 calculation = 'scf' ,
                      outdir = './tmp/' ,
                  pseudo_dir = '/home/deleted/pseudo_psl' ,
                      prefix = 'GI_op' ,
                   verbosity = 'high' ,
               etot_conv_thr = 1.0D-5 ,
               forc_conv_thr = 4.0D-4 ,
                       nstep = 1000 ,
                    dipfield = .true. ,
 /
 &SYSTEM
                       ibrav = 4,
                           A = 9.88 ,
                           C = 15 ,
                         nat = 34,
                        ntyp = 4,
                     ecutwfc = 40.424239707 ,
                     ecutrho = 404.24239707 ,
                 occupations = 'smearing' ,
                     degauss = 0.01 ,
				   input_dft = 'vdW-DF' ,
    nspin = 2 ,
    starting_magnetization(1) = 0.5,
    starting_magnetization(2) = 0.5,
    starting_magnetization(3) = 0.5,
 /
 &ELECTRONS
            electron_maxstep = 50001,
                    conv_thr = 1.0D-6 ,
                 mixing_mode = 'local-TF' ,
                 mixing_beta = 0.5 ,
 /
ATOMIC_SPECIES
    C   12.01100  C.revpbe-n-kjpaw_psl.0.1.UPF 
    I  126.90400  I.revpbe-n-kjpaw_psl.0.2.UPF 
    O   15.99940  O.revpbe-n-kjpaw_psl.0.1.UPF 
    H   1.008000  H.revpbe-kjpaw_psl.0.1.UPF
ATOMIC_POSITIONS (crystal)
C       -0.007739200  -0.008582971  -0.004800973
C        0.238509344  -0.018984580  -0.004096513
C        0.495049783  -0.008544397  -0.005211630
C        0.751583758   0.007174679  -0.006714475
C        0.001429615   0.248151546  -0.004377581
C        0.078660964   0.158741095  -0.004185111
C        0.245593864   0.235319606  -0.003338648
C        0.319479035   0.143062617  -0.003535447
C        0.485549891   0.235287146  -0.003453994
C        0.575915114   0.158730351  -0.004356195
C        0.742544630   0.248126412  -0.004348353
C        0.832460645   0.169059749  -0.005426528
C       -0.005248791   0.493654073  -0.003625025
C        0.089925504   0.412868668  -0.003646584
C        0.267133851   0.490605409  -0.003535639
C        0.345595861   0.397321542  -0.003136307
C        0.547511075   0.397295985  -0.003093319
C        0.719146551   0.490518585  -0.003292084
C        0.818694545   0.412838650  -0.003539224
C       -0.019149578   0.737150711  -0.004040037
C        0.076176927   0.656396496  -0.003968577
C        0.252184211   0.737123402  -0.004599898
C        0.351363753   0.659395345  -0.004462717
C        0.523507089   0.752799375  -0.004693678
I        0.572265379   0.793727843   0.223668902
C        0.725421368   0.752932989  -0.004879360
C        0.803690321   0.659458070  -0.003889532
C        0.069399441   0.901923520  -0.004263085
C        0.328453934   0.901894658  -0.004695338
C        0.585598214   0.915100740  -0.006070774
C        0.825354513   0.914965286  -0.005916646
O        0.746640445   0.991963610   0.210494890
O        0.384513189   0.795024453   0.221097866
H        0.584783676   0.775256170   0.338758461
K_POINTS automatic 
  16 16 1   0 0 0 

