 &CONTROL
                 calculation = 'scf' ,
                      outdir = './tmp/' ,
                  pseudo_dir = '/home/deleted/pseudo_psl' ,
                      prefix = 'GF_op' ,
                   verbosity = 'high' ,
               etot_conv_thr = 1.0D-5 ,
               forc_conv_thr = 4.0D-4 ,
                       nstep = 1000 ,
                    dipfield = .true. ,
 /
 &SYSTEM
                       ibrav = 4,
                           A = 9.88 ,
                           C = 15 ,
                         nat = 33,
                        ntyp = 3,
                     ecutwfc = 40.424239707 ,
                     ecutrho = 404.24239707 ,
                 occupations = 'smearing' ,
                     degauss = 0.01 ,
				   input_dft = 'vdW-DF' ,
    nspin = 2 ,
    starting_magnetization(1) = 0.5,
    starting_magnetization(2) = 0.5,
    starting_magnetization(3) = 0.5,
 /
 &ELECTRONS
            electron_maxstep = 50001,
                    conv_thr = 1.0D-6 ,
                 mixing_mode = 'local-TF' ,
                 mixing_beta = 0.5 ,
 /
ATOMIC_SPECIES
    C   12.01100  C.revpbe-n-kjpaw_psl.0.1.UPF 
    F   18.99800  F.revpbe-n-kjpaw_psl.0.1.UPF 
    O   15.99940  O.revpbe-n-kjpaw_psl.0.1.UPF 
ATOMIC_POSITIONS (crystal)
C        0.003265833   0.002639421  -0.001836946
C        0.247151324  -0.005697353   0.001233531
C        0.499373588   0.002639421  -0.001836946
C        0.754257312   0.008514625  -0.009029786
C        0.004428209   0.253430078  -0.003092114
C        0.086432197   0.168874657  -0.001022959
C        0.253317551   0.247364491   0.000422924
C        0.328537873   0.157075749   0.001476254
C        0.494046941   0.247364491   0.000422924
C        0.582442459   0.168874657  -0.001022959
C        0.749001869   0.253430078  -0.003092114
C        0.836322720   0.172645441  -0.005291536
C       -0.000033690   0.499932620  -0.002523643
C        0.091095386   0.418643932  -0.002762829
C        0.265685493   0.497968424  -0.003227680
C        0.348802002   0.409500152  -0.001380969
C        0.560698149   0.409500152  -0.001380969
C        0.732282931   0.497968424  -0.003227680
C        0.827548545   0.418643932  -0.002762829
C       -0.003283286   0.747303413  -0.001300633
C        0.082433175   0.664866351  -0.000884876
C        0.250586699   0.747303413  -0.001300633
C        0.338835803   0.665664969  -0.005083878
C        0.498140282   0.765229456  -0.009544696
F        0.592255014   0.684510029  -0.035320785
C        0.767089173   0.765229456  -0.009544696
C        0.826829165   0.665664969  -0.005083878
C        0.080439807   0.913361331  -0.000154202
C        0.332921523   0.913361331  -0.000154202
C        0.587800377   0.925020879  -0.008234558
C        0.837220501   0.925020879  -0.008234558
O        0.690324116   0.880648229   0.193066223
O        0.620417620   0.740835240   0.165045031
K_POINTS automatic 
  16 16 1   0 0 0 

