 &CONTROL
                 calculation = 'nscf' ,
                      outdir = './tmp/' ,
                  pseudo_dir = '/home/deleted/pseudo_psl' ,
                      prefix = 'GBr_op' ,
                   verbosity = 'high' ,
               etot_conv_thr = 1.0D-5 ,
               forc_conv_thr = 4.0D-4 ,
                       nstep = 1000 ,
                    dipfield = .true. ,
 /
 &SYSTEM
                       ibrav = 4,
                           A = 9.88 ,
                           C = 15 ,
                         nat = 32,
                        ntyp = 3,
                     ecutwfc = 40.424239707 ,
                     ecutrho = 404.24239707 ,
                 occupations = 'tetrahedra' ,
                     degauss = 0.01 ,
				   input_dft = 'vdW-DF' ,
 /
 &ELECTRONS
            electron_maxstep = 50001,
                    conv_thr = 1.0D-6 ,
                 mixing_mode = 'local-TF' ,
                 mixing_beta = 0.5 ,
 /
ATOMIC_SPECIES
    C   12.01100  C.revpbe-n-kjpaw_psl.0.1.UPF 
   Br   79.90350  Br.revpbe-n-kjpaw_psl.0.2.UPF 
    O   15.99940  O.revpbe-n-kjpaw_psl.0.1.UPF 
ATOMIC_POSITIONS crystal 
C       -0.009098107  -0.003514480  -0.005473859
C        0.237098489  -0.014144832  -0.004828825
C        0.493823712  -0.003609489  -0.005007349
C        0.749964129   0.011805558  -0.005735098
C        0.000074209   0.253265143  -0.005110882
C        0.077434305   0.163760397  -0.004965880
C        0.244445220   0.240451406  -0.004758402
C        0.318305464   0.148345748  -0.004431553
C        0.484208318   0.240333280  -0.004538279
C        0.574502597   0.163652373  -0.004642925
C        0.741378895   0.253233942  -0.004897799
C        0.831281833   0.174355477  -0.005117937
C       -0.006695417   0.498409741  -0.005588794
C        0.088706871   0.418084952  -0.005426340
C        0.266869339   0.495981310  -0.005792744
C        0.345169755   0.402660074  -0.005346788
C        0.545674445   0.402613588  -0.005269417
C        0.717214303   0.495848138  -0.005770399
C        0.817503648   0.418067339  -0.005282519
C       -0.020447913   0.742245450  -0.005958472
C        0.075058434   0.661904204  -0.005855590
C        0.250917246   0.742139755  -0.005876418
C        0.350988685   0.664478618  -0.006456609
C        0.522964829   0.757536595  -0.006519424
Br       0.688120524   0.677580901   0.235037975
C        0.722973612   0.757637375  -0.007628591
C        0.801515876   0.664567253  -0.006652677
C        0.068257412   0.907014096  -0.005429802
C        0.326967958   0.906986553  -0.005154203
C        0.584202732   0.919882077  -0.005828944
C        0.823906233   0.919814401  -0.006416888
O        0.536712357   0.668613059   0.164058764
K_POINTS automatic 
  20 20 1   0 0 0 

