 &CONTROL
                 calculation = 'scf' ,
                      outdir = './tmp/' ,
                  pseudo_dir = '/home/deleted/pseudo_psl' ,
                      prefix = 'GBr_ip' ,
                   verbosity = 'high' ,
               etot_conv_thr = 1.0D-5 ,
               forc_conv_thr = 4.0D-4 ,
                       nstep = 1000 ,
                    dipfield = .true. ,
 /
 &SYSTEM
                       ibrav = 4,
                           A = 9.88 ,
                           C = 15 ,
                         nat = 34,
                        ntyp = 4,
                     ecutwfc = 40.424239707 ,
                     ecutrho = 404.24239707 ,
                 occupations = 'smearing' ,
                     degauss = 0.01 ,
				   input_dft = 'vdW-DF' ,
 /
 &ELECTRONS
            electron_maxstep = 50001,
                    conv_thr = 1.0D-6 ,
                 mixing_mode = 'local-TF' ,
                 mixing_beta = 0.5 ,
 /
ATOMIC_SPECIES
    C   12.01100  C.revpbe-n-kjpaw_psl.0.1.UPF 
   Br   79.90350  Br.revpbe-n-kjpaw_psl.0.2.UPF 
    O   15.99940  O.revpbe-n-kjpaw_psl.0.1.UPF 
    H   1.008000  H.revpbe-kjpaw_psl.0.1.UPF
ATOMIC_POSITIONS crystal 
C        0.005495044   0.002292891   0.002884476
C        0.258063148   0.009035780   0.004291513
C        0.503922474   0.002333822   0.002310398
C        0.751826574  -0.003396969  -0.001883323
C        0.001563241   0.249121230   0.006034030
C        0.087383947   0.169265664   0.002298635
C        0.255257389   0.256696458  -0.002972766
C        0.341089969   0.174986211  -0.002200213
C        0.508618963   0.256751193  -0.002250440
C        0.589003975   0.169313190   0.002644479
C        0.754629811   0.249167977   0.006564428
C        0.834781075   0.162561663   0.004600441
C        0.004427561   0.501787006   0.013842497
C        0.081907624   0.415693499   0.009744194
C        0.245291120   0.500878031   0.002829401
C        0.323505490   0.420419120  -0.006492365
C        0.603987517   0.420426137  -0.004350776
C        0.762482140   0.500872687   0.005301365
C        0.840778755   0.415668100   0.010934312
C        0.010896336   0.755957823   0.010960328
C        0.088485134   0.669883233   0.013828245
C        0.252059053   0.755936744   0.009684217
C        0.330165148   0.670791167   0.002666297
C        0.488779893   0.751181512  -0.006817374
Br       0.546884607   0.585980080  -0.026880057
C        0.769354565   0.751151051  -0.004425584
C        0.847483701   0.670760480   0.005257521
C        0.091304582   0.922497053   0.006551441
C        0.338287158   0.922523304   0.005896973
C        0.584316316   0.914869887  -0.002907249
C        0.837604762   0.914822968  -0.001979727
O        0.489915346   0.451716056   0.180071282
O        0.557194502   0.603508913   0.139376242
H        0.388019444   0.434084009   0.200455442
K_POINTS automatic 
  16 16 1   0 0 0 

