 &CONTROL
                 calculation = 'relax' ,
                      outdir = './tmp/' ,
                  pseudo_dir = '/home/deleted/pseudo_psl' ,
                      prefix = 'GBr_ip' ,
                   verbosity = 'high' ,
               etot_conv_thr = 1.0D-5 ,
               forc_conv_thr = 4.0D-4 ,
                       nstep = 1000 ,
                    dipfield = .true. ,
 /
 &SYSTEM
                       ibrav = 4,
                           A = 9.88 ,
                           C = 15 ,
                         nat = 34,
                        ntyp = 4,
                     ecutwfc = 40.424239707 ,
                     ecutrho = 404.24239707 ,
                 occupations = 'smearing' ,
                     degauss = 0.01 ,
				   input_dft = 'vdW-DF' ,
 /
 &ELECTRONS
            electron_maxstep = 50001,
                    conv_thr = 1.0D-6 ,
                 mixing_mode = 'local-TF' ,
                 mixing_beta = 0.5 ,
 /
 &IONS
                ion_dynamics = 'bfgs' ,
 /
ATOMIC_SPECIES
    C   12.01100  C.revpbe-n-kjpaw_psl.0.1.UPF 
   Br   79.90350  Br.revpbe-n-kjpaw_psl.0.2.UPF 
    O   15.99940  O.revpbe-n-kjpaw_psl.0.1.UPF 
    H   1.008000  H.revpbe-kjpaw_psl.0.1.UPF
ATOMIC_POSITIONS crystal 
C        0.005894341   0.002854604   0.004099788
C        0.258433010   0.009623295   0.004799230
C        0.504208149   0.002683094   0.001722602
C        0.752046413  -0.003138863  -0.001451444
C        0.001863751   0.249494818   0.006339257
C        0.087858882   0.169811196   0.002614924
C        0.255709400   0.257356439  -0.003373519
C        0.341570750   0.175563745  -0.001924543
C        0.509123198   0.257185672  -0.001488201
C        0.589433844   0.169663520   0.003028455
C        0.755018963   0.249508473   0.007649071
C        0.835079165   0.162820604   0.005378363
C        0.004750480   0.502254592   0.014791725
C        0.082169743   0.416161173   0.009164520
C        0.245141499   0.501313595   0.000154150
C        0.323561497   0.420911120  -0.008815793
C        0.604228378   0.420901143  -0.001996170
C        0.762601704   0.501275371   0.008222183
C        0.841045918   0.416011251   0.012945468
C        0.011168471   0.756560172   0.013211549
C        0.088757828   0.670395309   0.014633224
C        0.252164300   0.756400080   0.008462061
C        0.329930738   0.671175854  -0.000361224
C        0.488657460   0.751590834  -0.009444330
Br       0.547692377   0.586544479  -0.027216066
C        0.769458678   0.751586771  -0.002110649
C        0.847549511   0.671268904   0.008365271
C        0.091685828   0.923074884   0.007984328
C        0.338587830   0.923032083   0.005390815
C        0.584470257   0.915116891  -0.003754776
C        0.837988375   0.915297176  -0.000719991
O        0.499193938   0.457782347   0.179403849
O        0.540482822   0.604430502   0.138010944
H        0.387238864   0.413026841   0.192153210
K_POINTS automatic 
  4 4 1   0 0 0 

