 &CONTROL
                 calculation = 'bands' ,
                      outdir = './tmp/' ,
                  pseudo_dir = '/home/deleted/pseudo_psl' ,
                      prefix = 'GI_ip' ,
                   verbosity = 'high' ,
               etot_conv_thr = 1.0D-5 ,
               forc_conv_thr = 4.0D-4 ,
                       nstep = 1000 ,
                    dipfield = .true. ,
 /
 &SYSTEM
                       ibrav = 4,
                           A = 9.88 ,
                           C = 15 ,
                         nat = 34,
                        ntyp = 4,
                     ecutwfc = 40.424239707 ,
                     ecutrho = 404.24239707 ,
                 occupations = 'tetrahedra' ,
                     degauss = 0.01 ,
				   input_dft = 'vdW-DF' ,
 /
 &ELECTRONS
            electron_maxstep = 50001,
                    conv_thr = 1.0D-6 ,
                 mixing_mode = 'local-TF' ,
                 mixing_beta = 0.5 ,
 /
ATOMIC_SPECIES
    C   12.01100  C.revpbe-n-kjpaw_psl.0.1.UPF 
    I  126.90400  I.revpbe-n-kjpaw_psl.0.2.UPF 
    O   15.99940  O.revpbe-n-kjpaw_psl.0.1.UPF 
    H   1.008000  H.revpbe-kjpaw_psl.0.1.UPF
ATOMIC_POSITIONS crystal 
C        0.004382412   0.008636394  -0.001361936
C        0.256974480   0.015752980   0.002285915
C        0.502514358   0.008393416  -0.001337897
C        0.750461757   0.002847259  -0.010926970
C        0.000014190   0.255009875   0.005002156
C        0.086050425   0.175511507  -0.001887945
C        0.252754177   0.262304614  -0.013418293
C        0.339520910   0.180962134  -0.011298672
C        0.507751903   0.262087926  -0.012451224
C        0.587703803   0.175254476  -0.001115460
C        0.753190277   0.254897351   0.005832852
C        0.833200195   0.168145820   0.002299371
C        0.003049451   0.507777504   0.019701326
C        0.080638634   0.421695810   0.011541389
C        0.242158295   0.506714036  -0.004849008
C        0.317184904   0.424981969  -0.024360418
C        0.605480269   0.424814156  -0.021460171
C        0.762206687   0.506512654  -0.002208936
C        0.839124972   0.421570643   0.012896480
C        0.009429347   0.762302995   0.013240208
C        0.087140294   0.676121314   0.020043644
C        0.250903543   0.762131791   0.012089496
C        0.327286288   0.677056604  -0.004402044
C        0.484575607   0.758643776  -0.022935909
I        0.545434764   0.592177948  -0.065384039
C        0.772383361   0.758918112  -0.021196744
C        0.847457526   0.677205288  -0.001963666
C        0.090102464   0.928905166   0.005857000
C        0.336883449   0.928894509   0.005543759
C        0.582525876   0.921768765  -0.012734968
C        0.837581250   0.921799270  -0.012307563
O        0.422299427   0.566859890   0.167984554
O        0.565311887   0.618813460   0.117775223
H        0.443221639   0.663462341   0.197987400
K_POINTS crystal_b 
4
0.0000000000    0.0000000000    0.0000000000 17
0.0000000000    0.5000000000    0.0000000000 10
0.3333333333    0.3333333333    0.0000000000 20
0.0000000000    0.0000000000    0.0000000000 1

