 &CONTROL
                 calculation = 'bands' ,
                      outdir = './tmp/' ,
                  pseudo_dir = '/home/deleted/pseudo_psl' ,
                      prefix = 'GCl_ip' ,
                   verbosity = 'high' ,
               etot_conv_thr = 1.0D-5 ,
               forc_conv_thr = 4.0D-4 ,
                       nstep = 1000 ,
                    dipfield = .true. ,
 /
 &SYSTEM
                       ibrav = 4,
                           A = 9.88 ,
                           C = 15 ,
                         nat = 33,
                        ntyp = 3,
                     ecutwfc = 40.424239707 ,
                     ecutrho = 404.24239707 ,
                 occupations = 'tetrahedra' ,
                     degauss = 0.01 ,
				   input_dft = 'vdW-DF' ,
    nspin = 2 ,
    starting_magnetization(1) = 0.5,
    starting_magnetization(2) = 0.5,
    starting_magnetization(3) = 0.5,
 /
 &ELECTRONS
            electron_maxstep = 50001,
                    conv_thr = 1.0D-6 ,
                 mixing_mode = 'local-TF' ,
                 mixing_beta = 0.5 ,
 /
ATOMIC_SPECIES
    C   12.01100  C.revpbe-n-kjpaw_psl.0.1.UPF 
   Cl   35.45200  Cl.revpbe-n-kjpaw_psl.0.3.0.UPF 
    O   15.99940  O.revpbe-n-kjpaw_psl.0.1.UPF 
ATOMIC_POSITIONS (crystal)
C        0.001717858   0.002297470  -0.000780584
C        0.254207727   0.008415452   0.000006413
C        0.500579613   0.002297470  -0.000780584
C        0.748596720  -0.002806560  -0.001924470
C       -0.001438309   0.249754135   0.000483106
C        0.084193500   0.169598212  -0.000706181
C        0.252622455   0.257255850  -0.002094169
C        0.337329101   0.174658203  -0.001849974
C        0.504633395   0.257255850  -0.002094169
C        0.585404711   0.169598212  -0.000706181
C        0.751192444   0.249754135   0.000483106
C        0.831728309   0.163456618   0.000066012
C        0.001005552   0.502011104   0.002732430
C        0.079242659   0.416287419   0.001570511
C        0.243561470   0.501224537  -0.000783787
C        0.323623250   0.421711979  -0.003486735
C        0.598088728   0.421711979  -0.003486735
C        0.757663067   0.501224537  -0.000783787
C        0.837044759   0.416287419   0.001570511
C        0.006708887   0.755669912   0.001470723
C        0.085002612   0.670005227   0.002710017
C        0.248961026   0.755669912   0.001470723
C        0.328279721   0.670675141  -0.000956178
C        0.487834944   0.750158078  -0.003905334
Cl       0.543017535   0.586035071  -0.007057532
C        0.762323133   0.750158078  -0.003905334
C        0.842395419   0.670675141  -0.000956178
C        0.087380627   0.922181342   0.000384832
C        0.334800715   0.922181342   0.000384832
C        0.581295452   0.914597828  -0.002287180
C        0.833302375   0.914597828  -0.002287180
O        0.629013782   0.631400261   0.213749528
O        0.502386477   0.631400261   0.213749528
K_POINTS automatic 
  20 20 1   0 0 0 

