 &CONTROL
                 calculation = 'relax' ,
                      outdir = './tmp/' ,
                  pseudo_dir = '/home/deleted/pseudo_psl' ,
                      prefix = 'GBr_op' ,
                   verbosity = 'high' ,
               etot_conv_thr = 1.0D-5 ,
               forc_conv_thr = 4.0D-4 ,
                       nstep = 1000 ,
                    dipfield = .true. ,
 /
 &SYSTEM
                       ibrav = 4,
                           A = 9.88 ,
                           C = 15 ,
                         nat = 35,
                        ntyp = 4,
                     ecutwfc = 40.424239707 ,
                     ecutrho = 404.24239707 ,
                 occupations = 'smearing' ,
                     degauss = 0.01 ,
				   input_dft = 'vdW-DF' ,
    nspin = 2 ,
    starting_magnetization(1) = 0.5,
    starting_magnetization(2) = 0.5,
    starting_magnetization(3) = 0.5,
	starting_magnetization(4) = 0.5,
 /
 &ELECTRONS
            electron_maxstep = 50001,
                    conv_thr = 1.0D-6 ,
                 mixing_mode = 'local-TF' ,
                 mixing_beta = 0.5 ,
 /
 &IONS
                ion_dynamics = 'bfgs' ,
 /
ATOMIC_SPECIES
    C   12.01100  C.revpbe-n-kjpaw_psl.0.1.UPF 
   Br   79.90350  Br.revpbe-n-kjpaw_psl.0.2.UPF 
    O   15.99940  O.revpbe-n-kjpaw_psl.0.1.UPF 
    H   1.008000  H.revpbe-kjpaw_psl.0.1.UPF
ATOMIC_POSITIONS crystal 
C        0.003663471   0.004960248  -0.005443372
C        0.248915268  -0.004082661  -0.005157453
C        0.502240691   0.005665776  -0.003301577
C        0.755321209   0.012039929  -0.004228745
C        0.006423611   0.257248094  -0.011536780
C        0.087646749   0.171531527  -0.009077817
C        0.254696556   0.250143740  -0.010529364
C        0.330092600   0.159134162  -0.008750437
C        0.495252444   0.249596455  -0.010308304
C        0.583823275   0.171687622  -0.009521309
C        0.750529684   0.257393009  -0.011078895
C        0.838359610   0.177177426  -0.010424598
C        0.001588975   0.503631588  -0.010181615
C        0.093295074   0.422641572  -0.011538022
C        0.269860535   0.503945363  -0.008290921
C        0.352226747   0.411399243  -0.011181626
C        0.559591826   0.412031563  -0.011078330
C        0.732344110   0.502723309  -0.010568168
C        0.827994734   0.422736429  -0.011272802
C       -0.003861703   0.750320491  -0.006699489
C        0.084359574   0.668424728  -0.006803193
C        0.253837706   0.748500845  -0.001397733
C        0.341172887   0.668222180   0.001823268
C        0.512581950   0.762990930   0.026898621
Br       0.451775282   0.596828850   0.199630942
C        0.753724416   0.763815082  -0.004881247
C        0.826379356   0.671068442  -0.008045286
C        0.081347376   0.915907631  -0.005299209
C        0.335095051   0.916187123  -0.001518625
C        0.591323457   0.930994545   0.002088650
C        0.838193660   0.927044704  -0.003032279
O        0.594481898   0.688358820  -0.008854694
O        0.536408279   0.785361276   0.122737764
H        0.52312859    0.642593835   0.299630942
H        0.494091781   0.691095063   0.299630942
K_POINTS automatic 
  4 4 1   0 0 0 

