 &CONTROL
                 calculation = 'scf' ,
                      outdir = './tmp/' ,
                  pseudo_dir = '/home/deleted/pseudo_psl' ,
                      prefix = 'MVG_op' ,
                   verbosity = 'high' ,
               etot_conv_thr = 1.0D-5 ,
               forc_conv_thr = 4.0D-4 ,
                       nstep = 1000 ,
                    dipfield = .true. ,
 /
 &SYSTEM
                       ibrav = 4,
                           A = 9.88 ,
                           C = 15 ,
                         nat = 31,
                        ntyp = 1,
                     ecutwfc = 40.424239707 ,
                     ecutrho = 404.24239707 ,
                 occupations = 'tetrahedra' ,
                     degauss = 0.01 ,
				   input_dft = 'vdW-DF' ,
    nspin = 2 ,
    starting_magnetization(1) = 0.5,
 /
 &ELECTRONS
            electron_maxstep = 50001,
                    conv_thr = 1.0D-6 ,
                 mixing_mode = 'local-TF' ,
                 mixing_beta = 0.5 ,
 /
ATOMIC_SPECIES
    C   12.01100  C.revpbe-n-kjpaw_psl.0.1.UPF 
ATOMIC_POSITIONS (crystal)
C        0.000656984   0.000289938   0.003014028
C        0.248469931  -0.003060137   0.001835577
C        0.499632954   0.000289938   0.003014028
C        0.751208603   0.002417206   0.006260113
C        0.001931239   0.251175539  -0.002434007
C        0.084590771   0.167440938   0.000282970
C        0.253099501   0.249754597  -0.001152102
C        0.330715647   0.161431295   0.000324370
C        0.496655097   0.249754597  -0.001152102
C        0.582850165   0.167440938   0.000282970
C        0.749244300   0.251175539  -0.002434007
C        0.834347723   0.168695447   0.000198122
C       -0.000040091   0.499919819  -0.005157912
C        0.087134029   0.417144347  -0.005446212
C        0.259273958   0.500499800  -0.006009379
C        0.339079999   0.412481775  -0.009345992
C        0.573401776   0.412481775  -0.009345992
C        0.741225842   0.500499800  -0.006009379
C        0.830010317   0.417144347  -0.005446212
C       -0.002345525   0.748099200  -0.000582413
C        0.082821513   0.665643027  -0.003923742
C        0.250444724   0.748099200  -0.000582413
C        0.335468442   0.666591318   0.001797281
C        0.501442181   0.750341532   0.012373457
C        0.748899352   0.750341532   0.012373457
C        0.831122874   0.666591318   0.001797281
C        0.081692308   0.914776136   0.002162969
C        0.333083827   0.914776136   0.002162969
C        0.584663759   0.918639685   0.007019190
C        0.833975926   0.918639685   0.007019190
C        0.588575201   0.677150404   0.030437230
K_POINTS automatic 
  20 20 1   0 0 0 

