 &CONTROL
                 calculation = 'bands' ,
                      outdir = './tmp/' ,
                  pseudo_dir = '/home/deleted/pseudo_psl' ,
                      prefix = 'GI_ip' ,
                   verbosity = 'high' ,
               etot_conv_thr = 1.0D-5 ,
               forc_conv_thr = 4.0D-4 ,
                       nstep = 1000 ,
                    dipfield = .true. ,
 /
 &SYSTEM
                       ibrav = 4,
                           A = 9.88 ,
                           C = 15 ,
                         nat = 32,
                        ntyp = 3,
                     ecutwfc = 40.424239707 ,
                     ecutrho = 404.24239707 ,
                 occupations = 'tetrahedra' ,
                     degauss = 0.01 ,
				   input_dft = 'vdW-DF' ,
 /
 &ELECTRONS
            electron_maxstep = 50001,
                    conv_thr = 1.0D-6 ,
                 mixing_mode = 'local-TF' ,
                 mixing_beta = 0.5 ,
 /
ATOMIC_SPECIES
    C   12.01100  C.revpbe-n-kjpaw_psl.0.1.UPF 
    I  126.90400  I.revpbe-n-kjpaw_psl.0.2.UPF 
    O   15.99940  O.revpbe-n-kjpaw_psl.0.1.UPF 
ATOMIC_POSITIONS crystal 
C        0.000564095   0.008553965   0.003491636
C        0.250538211   0.011065282   0.005598457
C        0.496848772   0.004623843  -0.002065034
C        0.746157200   0.002653019  -0.011958373
C       -0.004867399   0.254532235  -0.000955552
C        0.082080885   0.175073853  -0.002390446
C        0.249396911   0.260990786  -0.010546822
C        0.334722047   0.178207585   0.004761406
C        0.498658615   0.254364702   0.020644802
C        0.580269464   0.170929788   0.009861639
C        0.747102401   0.253172991   0.010983203
C        0.827690437   0.168760426   0.000006248
C       -0.004034666   0.505799998   0.011006448
C        0.075206939   0.420570886   0.000775478
C        0.237747696   0.503496339  -0.016677969
C        0.313563798   0.420609117  -0.033013543
C        0.587137823   0.416363436   0.056983622
C        0.751577730   0.506214408   0.027472063
C        0.830602698   0.421048709   0.016977029
C        0.002638815   0.759551036   0.016643665
C        0.081078047   0.673143330   0.013643796
C        0.245107930   0.757650536   0.002702765
C        0.322828293   0.673373189  -0.015392060
C        0.482461560   0.755144587  -0.026435126
I        0.555418130   0.598233281  -0.082435955
C        0.767969129   0.760259551  -0.013057603
C        0.836521873   0.674083894   0.015954210
C        0.084041289   0.926179306   0.007863430
C        0.331195088   0.924443746   0.003435608
C        0.578312117   0.918973367  -0.015930178
C        0.834156246   0.923027507  -0.007717611
O        0.527307819   0.468905308   0.109770766
K_POINTS crystal_b 
4
0.0000000000    0.0000000000    0.0000000000 17
0.0000000000    0.5000000000    0.0000000000 10
0.3333333333    0.3333333333    0.0000000000 20
0.0000000000    0.0000000000    0.0000000000 1

