 &CONTROL
                 calculation = 'nscf' ,
                      outdir = './tmp/' ,
                  pseudo_dir = '/home/deleted/pseudo_psl' ,
                      prefix = 'B1_opD' ,
                    dipfield = .true. ,
                   verbosity = 'high',
                       nstep = 1000,
               forc_conv_thr = 4.0D-4,
               etot_conv_thr = 1.0D-5
 /
 &SYSTEM
                       ibrav = 4,
                           A = 9.88 ,
                           C = 15 ,
                         nat = 32, 
                        ntyp = 2,
                     ecutwfc = 40.424239707 ,
                     ecutrho = 404.24239707 ,
                 occupations = 'tetrahedra' ,
                     degauss = 0.01 ,
				   input_dft = 'vdW-DF' ,
    nspin = 2 ,
    starting_magnetization(1) = 0.5,
	starting_magnetization(2) = 0.5,
 /
 &ELECTRONS
            electron_maxstep = 50001,
                    conv_thr = 1.0D-6 ,
                 mixing_mode = 'local-TF' ,
                 mixing_beta = 0.5 ,
 /
ATOMIC_SPECIES
    C   12.01100  C.revpbe-n-kjpaw_psl.0.1.UPF
    O   15.99940  O.revpbe-n-kjpaw_psl.0.1.UPF 
ATOMIC_POSITIONS crystal 
C        0.000400281   0.000128841   0.008661502
C        0.248124226  -0.004066591   0.001329468
C        0.500024282   0.000134753   0.008889159
C        0.753244441   0.006180880   0.019851163
C        0.002348709   0.251839573   0.006107384
C        0.082881066   0.165836801   0.003606069
C        0.247806195   0.244704766  -0.007132376
C        0.330075008   0.159798349  -0.007389706
C        0.497248825   0.244715240  -0.006979928
C        0.583285758   0.165846323   0.003823400
C        0.749831819   0.251844637   0.006196357
C        0.835180229   0.170028153   0.011029398
C        0.000214874   0.500059291   0.006526983
C        0.087405141   0.417771485   0.004608476
C        0.257951184   0.498748040   0.000874820
C        0.331236144   0.407918741  -0.014198647
C        0.577051594   0.407912561  -0.014130198
C        0.741190997   0.498758266   0.000840861
C        0.830739680   0.417773752   0.004595198
C       -0.004059261   0.748219042   0.007808845
C        0.083140007   0.665925942   0.005908038
C        0.252620258   0.748211167   0.007893530
C        0.342180883   0.667222668   0.011745186
C        0.506289705   0.758057873   0.026814777
O        0.594940607   0.689497599   0.052955806
O        0.488453076   0.476499481  -0.040316351
C        0.752112874   0.758062849   0.026715581
C        0.825405002   0.667233717   0.011651433
C        0.080954704   0.914140219   0.006193949
C        0.333487134   0.914132887   0.006326553
C        0.586069421   0.921269037   0.019673532
C        0.835498466   0.921260330   0.019519739
K_POINTS automatic 
  20 20 1   0 0 0 

