&PROJWFC
  outdir = './tmp',
  prefix = 'B1_opD',
  filpdos = 'B1_opD-pdos',
  ngauss = 1,
  degauss = 0.01,
  DeltaE = 0.01,
  lsym = .true.
/
