 &CONTROL
                 calculation = 'scf' ,
                      outdir = './tmp_subs/' ,
                  pseudo_dir = '/home/deleted/pseudo_psl' ,
                      prefix = 'GCl_op_subs' ,
                   verbosity = 'high' ,
               etot_conv_thr = 1.0D-5 ,
               forc_conv_thr = 4.0D-4 ,
                       nstep = 1000 ,
                    dipfield = .true. ,
 /
 &SYSTEM
                       ibrav = 4,
                           A = 9.88 ,
                           C = 15 ,
                         nat = 31,
                        ntyp = 2,
                     ecutwfc = 40.424239707 ,
                     ecutrho = 404.24239707 ,
                 occupations = 'smearing' ,
                     degauss = 0.01 ,
				   input_dft = 'vdW-DF' ,
 /
 &ELECTRONS
            electron_maxstep = 50001,
                    conv_thr = 1.0D-6 ,
                 mixing_mode = 'local-TF' ,
                 mixing_beta = 0.5 ,
 /
ATOMIC_SPECIES
    C   12.01100  C.revpbe-n-kjpaw_psl.0.1.UPF 
   Cl   35.45200  Cl.revpbe-n-kjpaw_psl.0.3.0.UPF 
ATOMIC_POSITIONS crystal 
C        0.005625654   0.008246453  -0.003439239
C        0.251191325   0.001919759  -0.010954985
C        0.503168348   0.008391468  -0.002411674
C        0.757119855   0.013361510   0.015337853
C        0.007018632   0.258817588  -0.002178028
C        0.088944039   0.174472790  -0.006971109
C        0.256026158   0.254343563  -0.011362076
C        0.332697598   0.165093430  -0.013152995
C        0.498851373   0.254566226  -0.010634403
C        0.586220947   0.174616697  -0.006137176
C        0.752509415   0.258903371  -0.001607626
C        0.838880788   0.176992557   0.003675477
C        0.003576354   0.506213991  -0.002558834
C        0.093212400   0.424244951  -0.002388104
C        0.266722901   0.505131682  -0.000094692
C        0.347991700   0.416374918  -0.006097645
C        0.568865247   0.416659726  -0.006753271
C        0.739157417   0.505145512  -0.001063627
C        0.831892376   0.424239356  -0.002292968
C        0.000790052   0.754037924  -0.004925531
C        0.086013668   0.671122194  -0.006371362
C        0.254041578   0.754246643  -0.004311735
C        0.340478943   0.672989240   0.007965150
C        0.498592359   0.769161839   0.028093502
Cl       0.593770127   0.688044653   0.091432010
C        0.767989786   0.767768462   0.022681302
C        0.832945885   0.673141662   0.005291016
C        0.084300482   0.920208932  -0.007237878
C        0.336625068   0.920377329  -0.006567062
C        0.588791443   0.930053472   0.015245952
C        0.841573744   0.929805744   0.013196258
K_POINTS automatic 
  16 16 1   0 0 0 

