 &CONTROL
                 calculation = 'scf' ,
                      outdir = './tmp_subs/' ,
                  pseudo_dir = '/home/deleted/pseudo_psl' ,
                      prefix = 'GCl_ip_subs' ,
                   verbosity = 'high' ,
               etot_conv_thr = 1.0D-5 ,
               forc_conv_thr = 4.0D-4 ,
                       nstep = 1000 ,
                    dipfield = .true. ,
 /
 &SYSTEM
                       ibrav = 4,
                           A = 9.88 ,
                           C = 15 ,
                         nat = 31,
                        ntyp = 2,
                     ecutwfc = 40.424239707 ,
                     ecutrho = 404.24239707 ,
                 occupations = 'smearing' ,
                     degauss = 0.01 ,
				   input_dft = 'vdW-DF' ,
 /
 &ELECTRONS
            electron_maxstep = 50001,
                    conv_thr = 1.0D-6 ,
                 mixing_mode = 'local-TF' ,
                 mixing_beta = 0.5 ,
 /
ATOMIC_SPECIES
    C   12.01100  C.revpbe-n-kjpaw_psl.0.1.UPF 
   Cl   35.45200  Cl.revpbe-n-kjpaw_psl.0.3.0.UPF 
ATOMIC_POSITIONS crystal 
C       -0.000090104   0.008330176   0.010128971
C        0.249172201   0.006935520  -0.001997803
C        0.499833961   0.008320672   0.010125025
C        0.751923292   0.012433190   0.022376625
C        0.001094097   0.259658870   0.010607781
C        0.081898326   0.173968532   0.004361065
C        0.245150431   0.252949986  -0.015147314
C        0.331283915   0.171136060  -0.015891668
C        0.499227949   0.252913800  -0.015147239
C        0.583497959   0.173956744   0.004396808
C        0.749990362   0.259653623   0.010636197
C        0.834255562   0.177090272   0.016410462
C        0.000519774   0.509608742   0.012548378
C        0.084109172   0.426176235   0.009492659
C        0.251712894   0.509156234  -0.002254469
C        0.314130443   0.414838984  -0.026697810
C        0.592150294   0.414795668  -0.026703163
C        0.748859001   0.509124278  -0.002216919
C        0.833495932   0.426165675   0.009532094
C       -0.001558991   0.758565600   0.007960342
C        0.083676569   0.675944294   0.007922296
C        0.251538603   0.758584927   0.007924930
C        0.339452599   0.676543887   0.009050016
C        0.503865698   0.764152582   0.022160960
Cl       0.491109298   0.490688548  -0.091379235
C        0.751698066   0.764153251   0.022172259
C        0.828480426   0.676513987   0.009085763
C        0.082445275   0.924375480   0.005374659
C        0.333346952   0.924394565   0.005361277
C        0.585002883   0.928234525   0.020454062
C        0.834640423   0.928235588   0.020467888
K_POINTS automatic 
  16 16 1   0 0 0 

