 &CONTROL
                 calculation = 'nscf' ,
                      outdir = './tmp/' ,
                  pseudo_dir = '/home/deleted/pseudo_psl' ,
                      prefix = 'GI_ip' ,
                   verbosity = 'high' ,
               etot_conv_thr = 1.0D-5 ,
               forc_conv_thr = 4.0D-4 ,
                       nstep = 1000 ,
                    dipfield = .true. ,
 /
 &SYSTEM
                       ibrav = 4,
                           A = 9.88 ,
                           C = 15 ,
                         nat = 34,
                        ntyp = 4,
                     ecutwfc = 40.424239707 ,
                     ecutrho = 404.24239707 ,
                 occupations = 'tetrahedra' ,
                     degauss = 0.01 ,
				   input_dft = 'vdW-DF' ,
    nspin = 2 ,
    starting_magnetization(1) = 0.5,
    starting_magnetization(2) = 0.5,
    starting_magnetization(3) = 0.5,
 /
 &ELECTRONS
            electron_maxstep = 50001,
                    conv_thr = 1.0D-6 ,
                 mixing_mode = 'local-TF' ,
                 mixing_beta = 0.5 ,
 /
ATOMIC_SPECIES
    C   12.01100  C.revpbe-n-kjpaw_psl.0.1.UPF 
    I  126.90400  I.revpbe-n-kjpaw_psl.0.2.UPF 
    O   15.99940  O.revpbe-n-kjpaw_psl.0.1.UPF 
    H   1.008000  H.revpbe-kjpaw_psl.0.1.UPF
ATOMIC_POSITIONS (crystal)
C       -0.000575271  -0.000048522   0.004376505
C        0.251940780   0.006822786   0.007276694
C        0.497581292  -0.000290730   0.002821340
C        0.745759180  -0.005316853  -0.006125759
C       -0.004635086   0.246725858   0.010243009
C        0.081209921   0.167042813   0.003207546
C        0.247996343   0.253536952  -0.008511776
C        0.334466192   0.172092092  -0.005908586
C        0.502453911   0.253498310  -0.006009574
C        0.582882969   0.166793237   0.004454094
C        0.748385444   0.246562353   0.011832872
C        0.828447954   0.159872163   0.007496857
C       -0.001365858   0.499395789   0.026349877
C        0.076289194   0.413507176   0.017017801
C        0.237585175   0.498332785  -0.000314683
C        0.312627960   0.416460514  -0.019678723
C        0.600210054   0.416989267  -0.013114172
C        0.757202885   0.498266592   0.006166127
C        0.834521004   0.413243014   0.020265196
C        0.004738181   0.753612975   0.019872340
C        0.082699332   0.667471605   0.026070663
C        0.246178556   0.753356523   0.016408595
C        0.322703250   0.668640261  -0.000786109
C        0.479368804   0.750581731  -0.020793667
I        0.541712246   0.583422351  -0.062986556
C        0.767124713   0.750068098  -0.014160909
C        0.842479694   0.668707770   0.005750519
C        0.085235638   0.920227252   0.011531815
C        0.332040896   0.920037582   0.009731812
C        0.577862004   0.913268205  -0.009071234
C        0.832386846   0.913327868  -0.006413296
O        0.513368859   0.584388121   0.160809726
O        0.390075795   0.608765258   0.188192824
H        0.490387065   0.487807873   0.192069184
K_POINTS automatic 
  20 20 1   0 0 0 

