 &CONTROL
                 calculation = 'scf' ,
                      outdir = './tmp_subs/' ,
                  pseudo_dir = '/home/deleted/pseudo_psl' ,
                      prefix = 'GCl_op_subs' ,
                   verbosity = 'high' ,
               etot_conv_thr = 1.0D-5 ,
               forc_conv_thr = 4.0D-4 ,
                       nstep = 1000 ,
                    dipfield = .true. ,
 /
 &SYSTEM
                       ibrav = 4,
                           A = 9.88 ,
                           C = 15 ,
                         nat = 31,
                        ntyp = 2,
                     ecutwfc = 40.424239707 ,
                     ecutrho = 404.24239707 ,
                 occupations = 'smearing' ,
                     degauss = 0.01 ,
				   input_dft = 'vdW-DF' ,
 /
 &ELECTRONS
            electron_maxstep = 50001,
                    conv_thr = 1.0D-6 ,
                 mixing_mode = 'local-TF' ,
                 mixing_beta = 0.5 ,
 /
ATOMIC_SPECIES
    C   12.01100  C.revpbe-n-kjpaw_psl.0.1.UPF 
   Cl   35.45200  Cl.revpbe-n-kjpaw_psl.0.3.0.UPF 
ATOMIC_POSITIONS crystal 
C        0.006548847   0.005106088  -0.004050381
C        0.252406970  -0.000893678  -0.011275293
C        0.504105938   0.005133881  -0.002379215
C        0.758002049   0.009987088   0.014500485
C        0.008070721   0.255688674  -0.002784142
C        0.089960066   0.171455362  -0.007257493
C        0.257184542   0.251558178  -0.011689811
C        0.333963950   0.162209395  -0.013206545
C        0.500076460   0.251452913  -0.010818134
C        0.587323057   0.171401437  -0.006187509
C        0.753589209   0.255708863  -0.001897090
C        0.839826523   0.173629791   0.003185656
C        0.004727827   0.503255494  -0.003657325
C        0.094105573   0.421210250  -0.003440291
C        0.267463969   0.502131887  -0.001303968
C        0.348430368   0.413503754  -0.007412144
C        0.570704403   0.413557286  -0.007384640
C        0.740461239   0.502001596  -0.002072143
C        0.833084524   0.421065698  -0.003072886
C        0.001963249   0.751130932  -0.006116128
C        0.087191682   0.668156126  -0.007571205
C        0.255184337   0.751235091  -0.005237555
C        0.341560656   0.670066710   0.006957947
C        0.499482999   0.765599805   0.028025047
Cl       0.594231199   0.684971061   0.092119444
C        0.767976386   0.763983623   0.020218849
C        0.834066189   0.670272967   0.003828404
C        0.085358759   0.917260313  -0.008085447
C        0.337716046   0.917446062  -0.006869405
C        0.589629705   0.926619755   0.015048554
C        0.842277882   0.926295786   0.011808106
K_POINTS automatic 
  16 16 1   0 0 0 

