 &CONTROL
                 calculation = 'bands' ,
                      outdir = './tmp/' ,
                  pseudo_dir = '/home/deleted/pseudo_psl' ,
                      prefix = 'GI_ip' ,
                   verbosity = 'high' ,
               etot_conv_thr = 1.0D-5 ,
               forc_conv_thr = 4.0D-4 ,
                       nstep = 1000 ,
                    dipfield = .true. ,
 /
 &SYSTEM
                       ibrav = 4,
                           A = 9.88 ,
                           C = 15 ,
                         nat = 34,
                        ntyp = 4,
                     ecutwfc = 40.424239707 ,
                     ecutrho = 404.24239707 ,
                 occupations = 'tetrahedra' ,
                     degauss = 0.01 ,
				   input_dft = 'vdW-DF' ,
 /
 &ELECTRONS
            electron_maxstep = 50001,
                    conv_thr = 1.0D-6 ,
                 mixing_mode = 'local-TF' ,
                 mixing_beta = 0.5 ,
 /
ATOMIC_SPECIES
    C   12.01100  C.revpbe-n-kjpaw_psl.0.1.UPF 
    I  126.90400  I.revpbe-n-kjpaw_psl.0.2.UPF 
    O   15.99940  O.revpbe-n-kjpaw_psl.0.1.UPF 
    H   1.008000  H.revpbe-kjpaw_psl.0.1.UPF
ATOMIC_POSITIONS crystal 
C        0.004402814   0.009759543  -0.004451332
C        0.257187785   0.016688331  -0.004655398
C        0.503150808   0.009929403  -0.000879629
C        0.751184209   0.004387010   0.005837270
C        0.001065408   0.256754790  -0.008096918
C        0.086821058   0.176941672  -0.001875906
C        0.254022188   0.264188033   0.008761228
C        0.340266896   0.182336344   0.006728086
C        0.508354366   0.264346049   0.005058699
C        0.588235460   0.176939627  -0.003213337
C        0.753907620   0.256687553  -0.009591237
C        0.834042996   0.170060525  -0.005214545
C        0.004026696   0.509237687  -0.022589457
C        0.082124385   0.423430963  -0.014484323
C        0.244598601   0.508367276  -0.000323008
C        0.321557083   0.428043675   0.016741653
C        0.603147227   0.429338300   0.006899580
C        0.760782201   0.508105001  -0.011071179
C        0.839588355   0.423025507  -0.018766600
C        0.009686560   0.763612742  -0.019043045
C        0.088168900   0.677662596  -0.022417474
C        0.252026607   0.763570167  -0.013801964
C        0.329626103   0.678895530   0.000434828
C        0.486431733   0.759479292   0.019105287
I        0.547309516   0.593602747   0.070562370
C        0.765242206   0.756731240   0.002474070
C        0.845581589   0.678431092  -0.012418990
C        0.090385437   0.930033190  -0.010137976
C        0.337555763   0.930159418  -0.006999440
C        0.583203716   0.922965340   0.009692977
C        0.836774477   0.922016074   0.002557815
O        0.493409022   0.711371151   0.237136855
O        0.377212939   0.564971982   0.190409235
H        0.505791452   0.668179907   0.293093338
K_POINTS crystal_b 
4
0.0000000000    0.0000000000    0.0000000000 17
0.0000000000    0.5000000000    0.0000000000 10
0.3333333333    0.3333333333    0.0000000000 20
0.0000000000    0.0000000000    0.0000000000 1

