 &CONTROL
                 calculation = 'scf' ,
                      outdir = './tmp_subs/' ,
                  pseudo_dir = '/home/deleted/pseudo_psl' ,
                      prefix = 'GBr_ip_subs' ,
                   verbosity = 'high' ,
               etot_conv_thr = 1.0D-5 ,
               forc_conv_thr = 4.0D-4 ,
                       nstep = 1000 ,
                    dipfield = .true. ,
 /
 &SYSTEM
                       ibrav = 4,
                           A = 9.88 ,
                           C = 15 ,
                         nat = 31,
                        ntyp = 2,
                     ecutwfc = 40.424239707 ,
                     ecutrho = 404.24239707 ,
                 occupations = 'smearing' ,
                     degauss = 0.01 ,
				   input_dft = 'vdW-DF' ,
 /
 &ELECTRONS
            electron_maxstep = 50001,
                    conv_thr = 1.0D-6 ,
                 mixing_mode = 'local-TF' ,
                 mixing_beta = 0.5 ,
 /
ATOMIC_SPECIES
    C   12.01100  C.revpbe-n-kjpaw_psl.0.1.UPF 
   Br   79.90350  Br.revpbe-n-kjpaw_psl.0.2.UPF 
ATOMIC_POSITIONS crystal 
C        0.003381121   0.006354870  -0.002171925
C        0.255897850   0.013081627   0.000327991
C        0.501704335   0.006223976  -0.003616279
C        0.749782768   0.000911034  -0.009384835
C       -0.000451204   0.253276655   0.002194714
C        0.085378230   0.173498934  -0.002789131
C        0.253084130   0.260689041  -0.010691304
C        0.338736356   0.178853427  -0.008983204
C        0.506325545   0.260677103  -0.009683718
C        0.586934609   0.173392743  -0.002746084
C        0.752491825   0.253274260   0.002722650
C        0.832702378   0.166654758   0.000205371
C        0.002444515   0.505827421   0.012945349
C        0.080232022   0.419936065   0.006749438
C        0.243055346   0.504990371  -0.005214660
C        0.320056853   0.424080133  -0.018827596
C        0.602612750   0.424255997  -0.015113403
C        0.760358060   0.504964627  -0.001176004
C        0.838552001   0.419815633   0.008599367
C        0.008581639   0.759947644   0.008748584
C        0.086508076   0.673940853   0.012901220
C        0.250124126   0.759876306   0.006208029
C        0.327918936   0.674878702  -0.005805051
C        0.485579081   0.755811890  -0.020470074
Br       0.544743967   0.589746129  -0.043317082
C        0.768437251   0.755622616  -0.015871281
C        0.845361719   0.674905605  -0.001270180
C        0.089128984   0.926521200   0.003080840
C        0.336140480   0.926469342   0.001637977
C        0.582172954   0.918948839  -0.011606944
C        0.835569745   0.919142206  -0.009724421
K_POINTS automatic 
  16 16 1   0 0 0 

