 &CONTROL
                 calculation = 'relax' ,
                      outdir = './tmp/' ,
                  pseudo_dir = '/home/deleted/pseudo_psl' ,
                      prefix = 'GF_op' ,
                   verbosity = 'high' ,
               etot_conv_thr = 1.0D-5 ,
               forc_conv_thr = 4.0D-4 ,
                       nstep = 1000 ,
                    dipfield = .true. ,
 /
 &SYSTEM
                       ibrav = 4,
                           A = 9.88 ,
                           C = 15 ,
                         nat = 34,
                        ntyp = 4,
                     ecutwfc = 40.424239707 ,
                     ecutrho = 404.24239707 ,
                 occupations = 'smearing' ,
                     degauss = 0.01 ,
				   input_dft = 'vdW-DF' ,
 /
 &ELECTRONS
            electron_maxstep = 50001,
                    conv_thr = 1.0D-6 ,
                 mixing_mode = 'local-TF' ,
                 mixing_beta = 0.5 ,
 /
 &IONS
                ion_dynamics = 'bfgs' ,
 /
ATOMIC_SPECIES
    C   12.01100  C.revpbe-n-kjpaw_psl.0.1.UPF 
    F   18.99800  F.revpbe-n-kjpaw_psl.0.1.UPF 
    O   15.99940  O.revpbe-n-kjpaw_psl.0.1.UPF 
	H   1.00800   H.revpbe-kjpaw_psl.0.1.UPF
ATOMIC_POSITIONS crystal 
C       -0.035211257  -0.021765023   0.002017078
C        0.211669016  -0.025007475   0.017172617
C        0.465069846  -0.018860548   0.022239478
C        0.712958551  -0.020224024   0.003049563
C       -0.035542627   0.230830174   0.010072361
C        0.046353754   0.144604832   0.029417886
C        0.218105610   0.230111135   0.014936329
C        0.294382247   0.138723026   0.015138340
C        0.459274532   0.226220818   0.007786786
C        0.546886024   0.146026067   0.009368027
C        0.711883632   0.231295201  -0.002007702
C        0.798332396   0.148476549   0.000004419
C       -0.041799639   0.479266115  -0.009317546
C        0.047825048   0.396953036   0.002580105
C        0.222993172   0.482538719   0.016880126
C        0.305604667   0.390410760   0.010600732
C        0.525898425   0.388848245   0.003554016
C        0.692350955   0.478304566  -0.008458372
C        0.786489401   0.396440648  -0.009611927
C       -0.044544219   0.726847932  -0.001075446
C        0.040269974   0.644498096   0.002110979
C        0.207036831   0.726682252   0.018716244
C        0.291299256   0.644909695   0.032249220
C        0.461032841   0.737924388   0.058764201
F        0.586285559   0.682585731  -0.078082430
C        0.727787466   0.743567759  -0.035942649
C        0.788377631   0.646574409  -0.015272198
C        0.043427679   0.892200231   0.004347705
C        0.296635990   0.895459478   0.021143451
C        0.552837832   0.902139702   0.025846131
C        0.803540974   0.903240779  -0.015939485
O        0.527191577   0.685444186   0.105518068
O        1.040036075   1.130768524   0.133100404
H        1.138751804   1.128781377   0.163850291
K_POINTS automatic 
  4 4 1   0 0 0 

