 &CONTROL
                 calculation = 'relax' ,
                      outdir = './tmp/' ,
                  pseudo_dir = '/home/deleted/pseudo_psl' ,
                      prefix = 'GF_op' ,
                   verbosity = 'high' ,
               etot_conv_thr = 1.0D-5 ,
               forc_conv_thr = 4.0D-4 ,
                       nstep = 1000 ,
                    dipfield = .true. ,
 /
 &SYSTEM
                       ibrav = 4,
                           A = 9.88 ,
                           C = 15 ,
                         nat = 34,
                        ntyp = 4,
                     ecutwfc = 40.424239707 ,
                     ecutrho = 404.24239707 ,
                 occupations = 'smearing' ,
                     degauss = 0.01 ,
				   input_dft = 'vdW-DF' ,
 /
 &ELECTRONS
            electron_maxstep = 50001,
                    conv_thr = 1.0D-6 ,
                 mixing_mode = 'local-TF' ,
                 mixing_beta = 0.5 ,
 /
 &IONS
                ion_dynamics = 'bfgs' ,
 /
ATOMIC_SPECIES
    C   12.01100  C.revpbe-n-kjpaw_psl.0.1.UPF 
    F   18.99800  F.revpbe-n-kjpaw_psl.0.1.UPF 
    O   15.99940  O.revpbe-n-kjpaw_psl.0.1.UPF 
	H   1.00800   H.revpbe-kjpaw_psl.0.1.UPF
ATOMIC_POSITIONS crystal 
C       -0.015752895  -0.005348120  -0.000180566
C        0.231683690  -0.009598668   0.009176773
C        0.483722952  -0.004699054   0.011383107
C        0.732646054  -0.004001000  -0.003226836
C       -0.014308730   0.245814596  -0.000173575
C        0.067815417   0.161725820   0.004663249
C        0.236041732   0.244143387   0.008457373
C        0.313706544   0.154869534   0.008518787
C        0.479473878   0.242614797   0.005215863
C        0.565886087   0.161599217   0.004176512
C        0.732032959   0.245594499   0.001021470
C        0.817113104   0.162672350  -0.002010335
C       -0.017247625   0.493787486   0.001869013
C        0.071194695   0.411773964   0.003417115
C        0.245614171   0.495607140   0.011926598
C        0.327216216   0.406521731   0.009094699
C        0.551168591   0.405408540   0.000318207
C        0.719754168   0.493423029  -0.006732802
C        0.811494725   0.411708334  -0.001321207
C       -0.018781441   0.742666247  -0.000381260
C        0.065983000   0.659841148   0.005294838
C        0.233125504   0.741755813   0.013938517
C        0.317292429   0.660544957   0.023231037
C        0.484458495   0.751887050   0.046853810
F        0.610208069   0.686399016  -0.081446741
C        0.750128724   0.755437600  -0.036843294
C        0.814771279   0.661973532  -0.015409729
C        0.064500856   0.908416232   0.003061885
C        0.316236946   0.909479349   0.014112002
C        0.569275041   0.915492557   0.013417027
C        0.819631907   0.914349586  -0.014423930
O        0.551171341   0.699622480   0.093663813
O        0.746881818   0.934296395   0.187986812
H        0.729351319   0.859037817   0.236108572
K_POINTS automatic 
  4 4 1   0 0 0 

