 &CONTROL
                 calculation = 'bands' ,
                      outdir = './tmp/' ,
                  pseudo_dir = '/home/deleted/pseudo_psl' ,
                      prefix = 'GCl_op' ,
                   verbosity = 'high' ,
               etot_conv_thr = 1.0D-5 ,
               forc_conv_thr = 4.0D-4 ,
                       nstep = 1000 ,
                    dipfield = .true. ,
 /
 &SYSTEM
                       ibrav = 4,
                           A = 9.88 ,
                           C = 15 ,
                         nat = 32,
                        ntyp = 3,
                     ecutwfc = 40.424239707 ,
                     ecutrho = 404.24239707 ,
                 occupations = 'tetrahedra' ,
                     degauss = 0.01 ,
				   input_dft = 'vdW-DF' ,
    nspin = 2 ,
    starting_magnetization(1) = 0.5,
    starting_magnetization(2) = 0.5,
    starting_magnetization(3) = 0.5,
 /
 &ELECTRONS
            electron_maxstep = 50001,
                    conv_thr = 1.0D-6 ,
                 mixing_mode = 'local-TF' ,
                 mixing_beta = 0.5 ,
 /
ATOMIC_SPECIES
    C   12.01100  C.revpbe-n-kjpaw_psl.0.1.UPF 
   Cl   35.45200  Cl.revpbe-n-kjpaw_psl.0.3.0.UPF 
    O   15.99940  O.revpbe-n-kjpaw_psl.0.1.UPF 
ATOMIC_POSITIONS (crystal)
C        0.007326821  -0.008014803  -0.007690993
C        0.253583909  -0.018337966  -0.007992013
C        0.510027757  -0.007952260  -0.008258621
C        0.766226614   0.007303125  -0.007992979
C        0.016390437   0.248764362  -0.007439458
C        0.093685052   0.159258686  -0.007334565
C        0.260601702   0.235939133  -0.007314659
C        0.334666383   0.143951295  -0.007475197
C        0.500668307   0.235957587  -0.007596699
C        0.590942074   0.159259711  -0.007676200
C        0.757700980   0.248728071  -0.007598174
C        0.847461652   0.169614420  -0.007548848
C        0.009847182   0.494168511  -0.008316411
C        0.104916702   0.413519433  -0.007930751
C        0.282342419   0.491271640  -0.008410450
C        0.360367813   0.398061524  -0.007771610
C        0.562955981   0.398062289  -0.007906305
C        0.734300739   0.491257714  -0.008208822
C        0.834110109   0.413524428  -0.007933274
C       -0.003759206   0.737834809  -0.008574352
C        0.091436608   0.657292738  -0.008987775
C        0.267025263   0.737830039  -0.009253306
C        0.366859934   0.660087152  -0.009492093
C        0.537895943   0.753136095  -0.009252773
Cl       0.450410556   0.756431810   0.225919031
C        0.740462246   0.753245502  -0.008571148
C        0.818767274   0.660117407  -0.008541400
C        0.084664087   0.902585844  -0.008054514
C        0.343348497   0.902661155  -0.008677525
C        0.600304408   0.915382046  -0.008582993
C        0.840321176   0.915287968  -0.008077743
O        0.284140576   0.723770543   0.185209283
K_POINTS automatic 
  20 20 1   0 0 0 

