 &CONTROL
                 calculation = 'relax' ,
                      outdir = './tmp/' ,
                  pseudo_dir = '/home/deleted/pseudo_psl' ,
                      prefix = 'PG_tc' ,
                   verbosity = 'high' ,
               etot_conv_thr = 1.0D-5 ,
               forc_conv_thr = 4.0D-4 ,
                       nstep = 1000 ,
                    dipfield = .true. ,
 /
 &SYSTEM
                       ibrav = 4,
                           A = 9.88 ,
                           C = 15 ,
                         nat = 34,
                        ntyp = 2,
                     ecutwfc = 40.424239707 ,
                     ecutrho = 404.24239707 ,
                 occupations = 'smearing' ,
                     degauss = 0.01 ,
				   input_dft = 'vdW-DF' ,
    nspin = 2 ,
    starting_magnetization(1) = 0.5,
	starting_magnetization(2) = 0.5,
 /
 &ELECTRONS
            electron_maxstep = 50001,
                    conv_thr = 1.0D-6 ,
                 mixing_mode = 'local-TF' ,
                 mixing_beta = 0.5 ,
 /
 &IONS
                ion_dynamics = 'bfgs' ,
 /
ATOMIC_SPECIES
    C   12.01100  C.revpbe-n-kjpaw_psl.0.1.UPF 
    O   15.99940  O.revpbe-n-kjpaw_psl.0.1.UPF 
ATOMIC_POSITIONS crystal 
    C      0.000000000    0.000000000    0.000000000
    C      0.250000000    0.000000000    0.000000000
    C      0.500000000    0.000000000    0.000000000
    C      0.750000000    0.000000000    0.000000000
    C      0.000000000    0.250000000    0.000000000
    C      0.083333333    0.166666667    0.000000000
    C      0.250000000    0.250000000    0.000000000
    C      0.333333333    0.166666667    0.000000000
    C      0.500000000    0.250000000    0.000000000
    C      0.583333333    0.166666667    0.000000000
    C      0.750000000    0.250000000    0.000000000
    C      0.833333333    0.166666667    0.000000000
    C      0.000000000    0.500000000    0.000000000
    C      0.083333333    0.416666667    0.000000000
    C      0.250000000    0.500000000    0.000000000
    C      0.333333333    0.416666667    0.000000000
    C      0.500000000    0.500000000    0.000000000
    C      0.583333333    0.416666667    0.000000000
    C      0.750000000    0.500000000    0.000000000
    C      0.833333333    0.416666667    0.000000000
    C      0.000000000    0.750000000    0.000000000
    C      0.083333333    0.666666667    0.000000000
    C      0.250000000    0.750000000    0.000000000
    C      0.333333333    0.666666667    0.000000000
    C      0.500000000    0.750000000    0.000000000
    C      0.583333333    0.666666667    0.000000000
    C      0.750000000    0.750000000    0.000000000
    C      0.833333333    0.666666667    0.000000000
    C      0.083333333    0.916666667    0.000000000
    C      0.333333333    0.916666667    0.000000000
    C      0.583333333    0.916666667    0.000000000
    C      0.833333333    0.916666667    0.000000000
    O      0.535353939    0.820707877    0.100000000
    O      0.464646061    0.679292123    0.100000000
K_POINTS automatic 
  4 4 1   0 0 0 

