 &CONTROL
                 calculation = 'scf' ,
                      outdir = './tmp/' ,
                  pseudo_dir = '/home/deleted/pseudo_psl' ,
                      prefix = 'GI_ip' ,
                   verbosity = 'high' ,
               etot_conv_thr = 1.0D-5 ,
               forc_conv_thr = 4.0D-4 ,
                       nstep = 1000 ,
                    dipfield = .true. ,
 /
 &SYSTEM
                       ibrav = 4,
                           A = 9.88 ,
                           C = 15 ,
                         nat = 31,
                        ntyp = 2,
                     ecutwfc = 40.424239707 ,
                     ecutrho = 404.24239707 ,
                 occupations = 'smearing' ,
                     degauss = 0.01 ,
				   input_dft = 'vdW-DF' ,
    nspin = 2 ,
    starting_magnetization(1) = 0.5,
    starting_magnetization(2) = 0.5,
 /
 &ELECTRONS
            electron_maxstep = 50001,
                    conv_thr = 1.0D-6 ,
                 mixing_mode = 'local-TF' ,
                 mixing_beta = 0.5 ,
 /
ATOMIC_SPECIES
    C   12.01100  C.revpbe-n-kjpaw_psl.0.1.UPF 
    I  126.90400  I.revpbe-n-kjpaw_psl.0.2.UPF 
ATOMIC_POSITIONS (crystal)
C        0.002914686   0.003186494   0.000000000
C        0.254871086   0.009742172   0.000000000
C        0.500271807   0.003186494   0.000000000
C        0.748254503  -0.003490994   0.000000000
C       -0.002792988   0.248792959   0.000000000
C        0.083093069   0.168868726   0.000000000
C        0.249730909   0.254883567   0.000000000
C        0.337758602   0.175517205   0.000000000
C        0.505152658   0.254883567   0.000000000
C        0.585775656   0.168868726   0.000000000
C        0.751585948   0.248792959   0.000000000
C        0.831142795   0.162285590   0.000000000
C        0.001064358   0.502128717   0.000000000
C        0.075883847   0.415066645   0.000000000
C        0.237811265   0.500859428   0.000000000
C        0.312767093   0.416885948   0.000000000
C        0.604118854   0.416885948   0.000000000
C        0.763048163   0.500859428   0.000000000
C        0.839182796   0.415066645   0.000000000
C        0.010128332   0.756988311   0.000000000
C        0.084990649   0.669981298   0.000000000
C        0.246859979   0.756988311   0.000000000
C        0.322965072   0.671174812   0.000000000
C        0.481886736   0.755146027   0.000000000
I        0.543006264   0.586012529   0.000000000
C        0.773259291   0.755146027   0.000000000
C        0.848209738   0.671174812   0.000000000
C        0.088794116   0.923249889   0.000000000
C        0.334455772   0.923249889   0.000000000
C        0.580864043   0.917142273   0.000000000
C        0.836278229   0.917142273   0.000000000
K_POINTS automatic 
  16 16 1   0 0 0 

