 &CONTROL
                 calculation = 'nscf' ,
                      outdir = './tmp/' ,
                  pseudo_dir = '/home/deleted/pseudo_psl' ,
                      prefix = 'GCl_op' ,
                   verbosity = 'high' ,
               etot_conv_thr = 1.0D-5 ,
               forc_conv_thr = 4.0D-4 ,
                       nstep = 1000 ,
                    dipfield = .true. ,
 /
 &SYSTEM
                       ibrav = 4,
                           A = 9.88 ,
                           C = 15 ,
                         nat = 33,
                        ntyp = 3,
                     ecutwfc = 40.424239707 ,
                     ecutrho = 404.24239707 ,
                 occupations = 'tetrahedra' ,
                     degauss = 0.01 ,
				   input_dft = 'vdW-DF' ,
 /
 &ELECTRONS
            electron_maxstep = 50001,
                    conv_thr = 1.0D-6 ,
                 mixing_mode = 'local-TF' ,
                 mixing_beta = 0.5 ,
 /
ATOMIC_SPECIES
    C   12.01100  C.revpbe-n-kjpaw_psl.0.1.UPF 
   Cl   35.45200  Cl.revpbe-n-kjpaw_psl.0.3.0.UPF 
    O   15.99940  O.revpbe-n-kjpaw_psl.0.1.UPF 
ATOMIC_POSITIONS crystal 
C        0.008522403   0.016762945  -0.001592727
C        0.254069046   0.010409084  -0.009280076
C        0.506033694   0.016808705  -0.000888292
C        0.759963891   0.021792043   0.016898158
C        0.009939656   0.267346482  -0.000014518
C        0.091864862   0.183014125  -0.004845357
C        0.258945400   0.262868038  -0.009194861
C        0.335592741   0.173570160  -0.011190439
C        0.501734962   0.263015394  -0.008671888
C        0.589112590   0.183058689  -0.004306851
C        0.755379554   0.267359205   0.000391903
C        0.841756337   0.185456974   0.005607481
C        0.006470123   0.514737874  -0.000582734
C        0.096107173   0.432750784  -0.000278300
C        0.269599875   0.513596088   0.001862808
C        0.350855442   0.424867285  -0.004090400
C        0.571765082   0.425084584  -0.004707391
C        0.742018242   0.513596108   0.000916715
C        0.834772994   0.432717746  -0.000238375
C        0.003642399   0.762543987  -0.003270947
C        0.088874242   0.679612374  -0.004683111
C        0.256917841   0.762713249  -0.002824968
C        0.343386611   0.681522856   0.009517966
C        0.501519423   0.777571139   0.029499024
Cl       0.596347389   0.696492513   0.093151180
C        0.770751153   0.776209759   0.024242951
C        0.835813075   0.681657426   0.007056417
C        0.087155601   0.928706293  -0.005567281
C        0.339495761   0.928840482  -0.005095761
C        0.591648793   0.938442093   0.016648958
C        0.844415836   0.938252393   0.014801884
O        0.361886661   0.547197974   0.200085713
O        0.354381579   0.413745582   0.189646255
K_POINTS automatic 
  20 20 1   0 0 0 

