 &CONTROL
                 calculation = 'bands' ,
                      outdir = './tmp/' ,
                  pseudo_dir = '/home/deleted/pseudo_psl' ,
                      prefix = 'GI_ip' ,
                   verbosity = 'high' ,
               etot_conv_thr = 1.0D-5 ,
               forc_conv_thr = 4.0D-4 ,
                       nstep = 1000 ,
                    dipfield = .true. ,
 /
 &SYSTEM
                       ibrav = 4,
                           A = 9.88 ,
                           C = 15 ,
                         nat = 34,
                        ntyp = 4,
                     ecutwfc = 40.424239707 ,
                     ecutrho = 404.24239707 ,
                 occupations = 'tetrahedra' ,
                     degauss = 0.01 ,
				   input_dft = 'vdW-DF' ,
    nspin = 2 ,
    starting_magnetization(1) = 0.5,
    starting_magnetization(2) = 0.5,
    starting_magnetization(3) = 0.5,
 /
 &ELECTRONS
            electron_maxstep = 50001,
                    conv_thr = 1.0D-6 ,
                 mixing_mode = 'local-TF' ,
                 mixing_beta = 0.5 ,
 /
ATOMIC_SPECIES
    C   12.01100  C.revpbe-n-kjpaw_psl.0.1.UPF 
    I  126.90400  I.revpbe-n-kjpaw_psl.0.2.UPF 
    O   15.99940  O.revpbe-n-kjpaw_psl.0.1.UPF 
    H   1.008000  H.revpbe-kjpaw_psl.0.1.UPF
ATOMIC_POSITIONS (crystal)
C        0.019739482   0.022675550   0.002797292
C        0.272488898   0.029982973   0.006629868
C        0.517925597   0.022672960   0.003448823
C        0.766099428   0.017260726  -0.006109321
C        0.015549593   0.269274836   0.010328616
C        0.101443078   0.189727629   0.003014510
C        0.268268337   0.276404457  -0.008172238
C        0.354947878   0.195060663  -0.006832987
C        0.522998802   0.276400807  -0.008429305
C        0.603208497   0.189738027   0.002882743
C        0.768655257   0.269289884   0.009980451
C        0.848674904   0.182397318   0.006911111
C        0.018495856   0.522162018   0.025076671
C        0.096121207   0.435887566   0.017923719
C        0.258005197   0.520878551   0.003016187
C        0.333232252   0.439479797  -0.016631474
C        0.621061075   0.439338677  -0.017565205
C        0.778058100   0.520907336   0.001083930
C        0.854732206   0.436011640   0.016867427
C        0.024956408   0.776367216   0.016870216
C        0.102493506   0.690198641   0.025113649
C        0.266435588   0.776422606   0.018281924
C        0.343262349   0.691286991   0.003661028
C        0.500368684   0.772641336  -0.014686711
I        0.560130185   0.606373315  -0.060631949
C        0.787910544   0.773014864  -0.017321480
C        0.863263803   0.691392967   0.001234423
C        0.105566653   0.943050470   0.009756598
C        0.352462583   0.943115822   0.010597696
C        0.598148118   0.935966429  -0.007089266
C        0.852829811   0.935947635  -0.008018828
O        0.585382634   0.625520204   0.135544804
O        0.454544818   0.497065489   0.179144779
H        0.473965203   0.529453674   0.241713132
K_POINTS automatic 
  20 20 1   0 0 0 

