 &CONTROL
                 calculation = 'scf' ,
                      outdir = './tmp/' ,
                  pseudo_dir = '/home/deleted/pseudo_psl' ,
                      prefix = 'MVGB1' ,
                    dipfield = .true. ,
                   verbosity = 'high',
                       nstep = 1000,
               forc_conv_thr = 4.0D-4,
               etot_conv_thr = 1.0D-5
 /
 &SYSTEM
                       ibrav = 4,
                           A = 9.88 ,
                           C = 15 ,
                         nat = 30,
                        ntyp = 1,
                     ecutwfc = 40.424239707 ,
                     ecutrho = 404.24239707 ,
                 occupations = 'smearing' ,
                     degauss = 0.01 ,
				   input_dft = 'vdW-DF' ,
 /
 &ELECTRONS
            electron_maxstep = 50001,
                    conv_thr = 1.0D-6 ,
                 mixing_mode = 'local-TF' ,
                 mixing_beta = 0.5 ,
 /
ATOMIC_SPECIES
    C   12.01100  C.revpbe-n-kjpaw_psl.0.1.UPF 
ATOMIC_POSITIONS crystal 
C       -0.001613831  -0.000369994   0.000000072
C        0.244625610  -0.010748497   0.000000033
C        0.501243895  -0.000369886   0.000000006
C        0.757697045   0.015394230   0.000000290
C        0.007825541   0.256545728   0.000000113
C        0.084947311   0.167036642  -0.000000097
C        0.251894318   0.243583366  -0.000000250
C        0.325636189   0.151272483  -0.000000009
C        0.491689202   0.243583312   0.000000074
C        0.582089461   0.167036638   0.000000242
C        0.748720355   0.256545647   0.000000353
C        0.838707674   0.177415164   0.000000382
C        0.000995906   0.501991589  -0.000000004
C        0.096486783   0.421276316  -0.000000119
C        0.273828087   0.498874447  -0.000000451
C        0.352317712   0.405593166  -0.000000397
C        0.553275692   0.405593128  -0.000000048
C        0.725046325   0.498874179   0.000000067
C        0.824789727   0.421276203   0.000000184
C       -0.013153403   0.745390339   0.000000057
C        0.082337455   0.664674976  -0.000000134
C        0.258543524   0.745390392  -0.000000338
C        0.358286890   0.667792436  -0.000000445
C        0.530057431   0.761073673  -0.000000166
C        0.731015828   0.761073447   0.000000240
C        0.809505317   0.667792215   0.000000144
C        0.075507784   0.910120920   0.000000035
C        0.334613030   0.910121048  -0.000000115
C        0.591644119   0.923083469   0.000000015
C        0.831439015   0.923083230   0.000000266
K_POINTS automatic 
  16 16 1   0 0 0 

