&PROJWFC
  outdir = './tmp',
  prefix = 'F',
  filpdos = 'F-pdos',
  ngauss = 1,
  degauss = 0.01,
  DeltaE = 0.01,
  lsym = .true.
/
