 &CONTROL
                 calculation = 'bands' ,
                      outdir = './tmp/' ,
                  pseudo_dir = '/home/deleted/pseudo_psl' ,
                      prefix = 'GI_op' ,
                   verbosity = 'high' ,
               etot_conv_thr = 1.0D-5 ,
               forc_conv_thr = 4.0D-4 ,
                       nstep = 1000 ,
                    dipfield = .true. ,
 /
 &SYSTEM
                       ibrav = 4,
                           A = 9.88 ,
                           C = 15 ,
                         nat = 34,
                        ntyp = 4,
                     ecutwfc = 40.424239707 ,
                     ecutrho = 404.24239707 ,
                 occupations = 'tetrahedra' ,
                     degauss = 0.01 ,
				   input_dft = 'vdW-DF' ,
    nspin = 2 ,
    starting_magnetization(1) = 0.5,
    starting_magnetization(2) = 0.5,
    starting_magnetization(3) = 0.5,
 /
 &ELECTRONS
            electron_maxstep = 50001,
                    conv_thr = 1.0D-6 ,
                 mixing_mode = 'local-TF' ,
                 mixing_beta = 0.5 ,
 /
ATOMIC_SPECIES
    C   12.01100  C.revpbe-n-kjpaw_psl.0.1.UPF 
    I  126.90400  I.revpbe-n-kjpaw_psl.0.2.UPF 
    O   15.99940  O.revpbe-n-kjpaw_psl.0.1.UPF 

    H   1.008000  H.revpbe-kjpaw_psl.0.1.UPF
ATOMIC_POSITIONS (crystal)
C       -0.000321609  -0.005226632  -0.002526269
C        0.245967449  -0.015546603  -0.001744896
C        0.502518001  -0.005256443  -0.001721807
C        0.758927425   0.010390567  -0.002598126
C        0.009035441   0.251627475  -0.001859829
C        0.086152145   0.162129225  -0.002166015
C        0.253082946   0.238704593  -0.002088101
C        0.326942047   0.146514946  -0.001703901
C        0.492958136   0.238634551  -0.001236232
C        0.583369082   0.162096342  -0.001315420
C        0.750038918   0.251624914  -0.001353349
C        0.839950595   0.172425417  -0.001839231
C        0.002369598   0.497163117  -0.001535701
C        0.097637372   0.416400453  -0.001680790
C        0.274753694   0.494122071  -0.001985817
C        0.352762077   0.400685404  -0.002204030
C        0.554957614   0.400908751  -0.001164251
C        0.726960424   0.494247049  -0.001730959
C        0.826325888   0.416424853  -0.001386760
C       -0.011579432   0.740649617  -0.002095328
C        0.083710830   0.659891921  -0.001764622
C        0.259759731   0.740606119  -0.001860066
C        0.359283222   0.662983100  -0.002135280
C        0.530850668   0.756211712  -0.002586870
I        0.682497945   0.794072210   0.255845801
C        0.732782287   0.756270497  -0.003013910
C        0.811284248   0.663132968  -0.002398967
C        0.076930152   0.905355984  -0.002136879
C        0.335894646   0.905323240  -0.001701265
C        0.592851407   0.918164064  -0.002392294
C        0.832787856   0.918201004  -0.003097701
O        0.480786654   0.586542367   0.212099234
O        0.500661674   0.451310866   0.215660552
H        0.534189228   0.447887010   0.154165593
K_POINTS automatic 
  20 20 1   0 0 0 

