 &CONTROL
                 calculation = 'bands' ,
                      outdir = './tmp/' ,
                  pseudo_dir = '/home/deleted/pseudo_psl' ,
                      prefix = 'GBr_op' ,
                   verbosity = 'high' ,
               etot_conv_thr = 1.0D-5 ,
               forc_conv_thr = 4.0D-4 ,
                       nstep = 1000 ,
                    dipfield = .true. ,
 /
 &SYSTEM
                       ibrav = 4,
                           A = 9.88 ,
                           C = 15 ,
                         nat = 34,
                        ntyp = 4,
                     ecutwfc = 40.424239707 ,
                     ecutrho = 404.24239707 ,
                 occupations = 'tetrahedra' ,
                     degauss = 0.01 ,
				   input_dft = 'vdW-DF' ,
 /
 &ELECTRONS
            electron_maxstep = 50001,
                    conv_thr = 1.0D-6 ,
                 mixing_mode = 'local-TF' ,
                 mixing_beta = 0.5 ,
 /
ATOMIC_SPECIES
    C   12.01100  C.revpbe-n-kjpaw_psl.0.1.UPF 
   Br   79.90350  Br.revpbe-n-kjpaw_psl.0.2.UPF 
    O   15.99940  O.revpbe-n-kjpaw_psl.0.1.UPF 
    H   1.008000  H.revpbe-kjpaw_psl.0.1.UPF
ATOMIC_POSITIONS crystal 
C       -0.007085292  -0.003846451  -0.011094521
C        0.239112098  -0.014252533  -0.010858970
C        0.495647691  -0.003890757  -0.011180125
C        0.752079543   0.011882609  -0.011382967
C        0.002310064   0.253113152  -0.010756090
C        0.079412054   0.163537838  -0.010817798
C        0.246356744   0.240085399  -0.010761590
C        0.320116202   0.147776575  -0.010669787
C        0.486168623   0.240084817  -0.010672037
C        0.576538217   0.163504747  -0.010766949
C        0.743198520   0.253131529  -0.010718098
C        0.833236494   0.174099953  -0.010807901
C       -0.004537121   0.498513855  -0.010986576
C        0.090946535   0.417838513  -0.010882446
C        0.268257823   0.495376602  -0.011230879
C        0.346650698   0.402052914  -0.011029822
C        0.547793347   0.402089688  -0.010921500
C        0.719554446   0.495433930  -0.011191203
C        0.819308092   0.417854596  -0.010850575
C       -0.018712139   0.741902666  -0.011408355
C        0.076835047   0.661219231  -0.011275389
C        0.253040321   0.741879749  -0.011396412
C        0.352715039   0.664210642  -0.011726051
C        0.524485319   0.757451761  -0.012271174
Br       0.560847593   0.608546412   0.224721381
C        0.725224491   0.757388993  -0.011971613
C        0.803919467   0.664253806  -0.011698025
C        0.070032264   0.906641003  -0.011110749
C        0.329050646   0.906602330  -0.011112421
C        0.585901213   0.919432093  -0.011896726
C        0.825895814   0.919467463  -0.011602793
O        0.551806754   0.802778638   0.216318371
O        0.704092414   0.938395554   0.219401146
H        0.733929279   0.954393233   0.155968161
K_POINTS automatic  
4
0.0000000000    0.0000000000    0.0000000000 17
0.0000000000    0.5000000000    0.0000000000 10
0.3333333333    0.3333333333    0.0000000000 20
0.0000000000    0.0000000000    0.0000000000 1

