 &CONTROL
                 calculation = 'nscf' ,
                      outdir = './tmp/' ,
                  pseudo_dir = '/home/deleted/pseudo_psl' ,
                      prefix = 'GI_ip' ,
                   verbosity = 'high' ,
               etot_conv_thr = 1.0D-5 ,
               forc_conv_thr = 4.0D-4 ,
                       nstep = 1000 ,
                    dipfield = .true. ,
 /
 &SYSTEM
                       ibrav = 4,
                           A = 9.88 ,
                           C = 15 ,
                         nat = 34,
                        ntyp = 4,
                     ecutwfc = 40.424239707 ,
                     ecutrho = 404.24239707 ,
                 occupations = 'tetrahedra' ,
                     degauss = 0.01 ,
				   input_dft = 'vdW-DF' ,
    nspin = 2 ,
    starting_magnetization(1) = 0.5,
    starting_magnetization(2) = 0.5,
    starting_magnetization(3) = 0.5,
 /
 &ELECTRONS
            electron_maxstep = 50001,
                    conv_thr = 1.0D-6 ,
                 mixing_mode = 'local-TF' ,
                 mixing_beta = 0.5 ,
 /
ATOMIC_SPECIES
    C   12.01100  C.revpbe-n-kjpaw_psl.0.1.UPF 
    I  126.90400  I.revpbe-n-kjpaw_psl.0.2.UPF 
    O   15.99940  O.revpbe-n-kjpaw_psl.0.1.UPF 
    H   1.008000  H.revpbe-kjpaw_psl.0.1.UPF
ATOMIC_POSITIONS (crystal)
C        0.001285837   0.034250903  -0.004400127
C        0.254211696   0.041359043  -0.005727311
C        0.500065479   0.034302694  -0.002757602
C        0.748222222   0.029303105   0.005383089
C       -0.001951682   0.281364644  -0.009900893
C        0.083799317   0.201485012  -0.003537418
C        0.250824927   0.288405342   0.007269498
C        0.337010309   0.206561118   0.006481588
C        0.504917479   0.287929813   0.007260308
C        0.585026754   0.201349076  -0.003371853
C        0.750724111   0.281279618  -0.010016100
C        0.830999152   0.194714894  -0.006369964
C        0.000609529   0.533829621  -0.023415333
C        0.078932988   0.447958550  -0.016730468
C        0.241979657   0.532873335  -0.003305637
C        0.318295832   0.452292717   0.014119544
C        0.601567123   0.451780395   0.013816349
C        0.757750728   0.532550891  -0.006254544
C        0.836219045   0.447654797  -0.018069891
C        0.006177946   0.788048817  -0.017717827
C        0.084808381   0.702268064  -0.022926952
C        0.248964096   0.788181954  -0.015656205
C        0.327612173   0.703909986  -0.002470793
C        0.484824287   0.783241455   0.015478647
I        0.541534901   0.612719545   0.073791286
C        0.762934022   0.781977004   0.007904210
C        0.842460332   0.703385765  -0.007642264
C        0.087213345   0.954582185  -0.010195428
C        0.334483890   0.954698781  -0.008727409
C        0.580064117   0.947291139   0.007475127
C        0.833833132   0.946786732   0.004260530
O        0.418781840   0.417253998   0.182521829
O        0.564255353   0.454914309   0.233052076
H        0.539021486   0.480641753   0.291294184
K_POINTS automatic 
  20 20 1   0 0 0 

