 &CONTROL
                 calculation = 'scf' ,
                      outdir = './tmp/' ,
                  pseudo_dir = '/home/deleted/pseudo_psl' ,
                      prefix = 'GBr_ip' ,
                   verbosity = 'high' ,
               etot_conv_thr = 1.0D-5 ,
               forc_conv_thr = 4.0D-4 ,
                       nstep = 1000 ,
                    dipfield = .true. ,
 /
 &SYSTEM
                       ibrav = 4,
                           A = 9.88 ,
                           C = 15 ,
                         nat = 34,
                        ntyp = 4,
                     ecutwfc = 40.424239707 ,
                     ecutrho = 404.24239707 ,
                 occupations = 'smearing' ,
                     degauss = 0.01 ,
				   input_dft = 'vdW-DF' ,
    nspin = 2 ,
    starting_magnetization(1) = 0.5,
    starting_magnetization(2) = 0.5,
    starting_magnetization(3) = 0.5,
 /
 &ELECTRONS
            electron_maxstep = 50001,
                    conv_thr = 1.0D-6 ,
                 mixing_mode = 'local-TF' ,
                 mixing_beta = 0.5 ,
 /
ATOMIC_SPECIES
    C   12.01100  C.revpbe-n-kjpaw_psl.0.1.UPF 
   Br   79.90350  Br.revpbe-n-kjpaw_psl.0.2.UPF 
    O   15.99940  O.revpbe-n-kjpaw_psl.0.1.UPF 
    H   1.008000  H.revpbe-kjpaw_psl.0.1.UPF
ATOMIC_POSITIONS (crystal)
C       -0.000351260   0.017776453   0.002330194
C        0.252326157   0.024653178   0.004909475
C        0.498160708   0.018017533   0.003521397
C        0.746064243   0.012168281  -0.001878958
C       -0.004257533   0.264664410   0.007449010
C        0.081519159   0.184745013   0.003736488
C        0.249435875   0.272257144  -0.000681638
C        0.335316294   0.190612984  -0.001574085
C        0.502828178   0.272409445  -0.003433657
C        0.583208336   0.184992201   0.001937735
C        0.748844226   0.264786916   0.005342441
C        0.829010985   0.178148991   0.004596577
C       -0.001513705   0.517364536   0.013873259
C        0.076017111   0.431159652   0.012530109
C        0.239758024   0.516448191   0.008339674
C        0.317965077   0.436088433  -0.001569615
C        0.598253275   0.435939111  -0.008135244
C        0.756986426   0.516496543   0.000443130
C        0.835040304   0.431374826   0.008295315
C        0.005084542   0.771410745   0.008560667
C        0.082578860   0.685460663   0.014133095
C        0.246346704   0.771660655   0.012776534
C        0.324713231   0.686448540   0.008133275
C        0.483132205   0.766697359  -0.002416706
Br       0.539812540   0.601530017  -0.026532185
C        0.763857682   0.766869785  -0.008725281
C        0.842034006   0.686340845   0.000242501
C        0.085526891   0.938039670   0.005798187
C        0.332537827   0.938163523   0.007608422
C        0.578540443   0.930495327  -0.001210191
C        0.831832496   0.930356667  -0.003525260
O        0.494637603   0.468005491   0.179415005
O        0.564620957   0.620088064   0.138879578
H        0.394211164   0.453142835   0.200619364
K_POINTS automatic 
  16 16 1   0 0 0 

