 &CONTROL
                 calculation = 'nscf' ,
                      outdir = './tmp/' ,
                  pseudo_dir = '/home/deleted/pseudo_psl' ,
                      prefix = 'MVG' ,
                    dipfield = .true. ,
                   verbosity = 'high',
                       nstep = 1000,
               forc_conv_thr = 4.0D-4,
               etot_conv_thr = 1.0D-5
 /
 &SYSTEM
                       ibrav = 4,
                           A = 9.88 ,
                           C = 15 ,
                         nat = 31,
                        ntyp = 1,
                     ecutwfc = 40.424239707 ,
                     ecutrho = 404.24239707 ,
                 occupations = 'tetrahedra' ,
                     degauss = 0.01 ,
				   input_dft = 'vdW-DF' ,
 /
 &ELECTRONS
            electron_maxstep = 50001,
                    conv_thr = 1.0D-6 ,
                 mixing_mode = 'local-TF' ,
                 mixing_beta = 0.5 ,
 /
ATOMIC_SPECIES
    C   12.01100  C.revpbe-n-kjpaw_psl.0.1.UPF
ATOMIC_POSITIONS crystal 
C        0.000289187  -0.000289187   0.000000000
C        0.250048373   0.000096745  -0.000000000
C        0.499421625  -0.000289187  -0.000000000
C        0.749816976  -0.000366047   0.000000000
C        0.000366047   0.250183024  -0.000000000
C        0.083638389   0.167237938  -0.000000000
C        0.253156704   0.251899867  -0.000000000
C        0.332523087   0.165046175   0.000000000
C        0.498743163   0.251899867   0.000000000
C        0.583599548   0.167237938  -0.000000000
C        0.749816976   0.250183024  -0.000000000
C        0.833333333   0.166666667   0.000000000
C        0.000289187   0.500578375   0.000000000
C        0.083638389   0.416400452   0.000000000
C        0.253156704   0.501256837   0.000000000
C        0.328747059   0.414373530   0.000000000
C        0.585626470   0.414373530  -0.000000000
C        0.748100133   0.501256837   0.000000000
C        0.832762062   0.416400452  -0.000000000
C       -0.000096745   0.749951627   0.000000000
C        0.083312115   0.666624231  -0.000000000
C        0.250048373   0.749951627  -0.000000000
C        0.332523087   0.667476913   0.000000000
C        0.498743163   0.746843296  -0.000000000
C        0.585626470   0.671252941   0.000000000
C        0.748100133   0.746843296   0.000000000
C        0.834953825   0.667476913   0.000000000
C        0.083312115   0.916687885  -0.000000000
C        0.333375769   0.916687885  -0.000000000
C        0.583599548   0.916361611  -0.000000000
C        0.832762062   0.916361611  -0.000000000
K_POINTS automatic 
  20 20 1   0 0 0 

