 &CONTROL
                 calculation = 'bands' ,
                      outdir = './tmp/' ,
                  pseudo_dir = '/home/deleted/pseudo_psl' ,
                      prefix = 'GBr_ip' ,
                   verbosity = 'high' ,
               etot_conv_thr = 1.0D-5 ,
               forc_conv_thr = 4.0D-4 ,
                       nstep = 1000 ,
                    dipfield = .true. ,
 /
 &SYSTEM
                       ibrav = 4,
                           A = 9.88 ,
                           C = 15 ,
                         nat = 33,
                        ntyp = 3,
                     ecutwfc = 40.424239707 ,
                     ecutrho = 404.24239707 ,
                 occupations = 'tetrahedra' ,
                     degauss = 0.01 ,
				   input_dft = 'vdW-DF' ,
 /
 &ELECTRONS
            electron_maxstep = 50001,
                    conv_thr = 1.0D-6 ,
                 mixing_mode = 'local-TF' ,
                 mixing_beta = 0.5 ,
 /
ATOMIC_SPECIES
    C   12.01100  C.revpbe-n-kjpaw_psl.0.1.UPF 
   Br   79.90350  Br.revpbe-n-kjpaw_psl.0.2.UPF 
    O   15.99940  O.revpbe-n-kjpaw_psl.0.1.UPF 
ATOMIC_POSITIONS crystal 
C        0.002029105   0.002410038   0.002751303
C        0.254599065   0.009198130   0.006151228
C        0.500380933   0.002410038   0.002751303
C        0.748578986  -0.002842028  -0.003756241
C       -0.001739459   0.249437593   0.008328376
C        0.083986733   0.169646234   0.002751284
C        0.251765470   0.256706607  -0.005097456
C        0.337451237   0.174902475  -0.003755356
C        0.504941137   0.256706607  -0.005097456
C        0.585659501   0.169646234   0.002751284
C        0.751177052   0.249437593   0.008328376
C        0.831430890   0.162861781   0.006152537
C        0.001023578   0.502047157   0.019225742
C        0.078873194   0.416090577   0.013699665
C        0.241833905   0.501082614   0.002421687
C        0.318386934   0.420060211  -0.012330259
C        0.601673275   0.420060211  -0.012330259
C        0.759248709   0.501082614   0.002421687
C        0.837217382   0.416090577   0.013699665
C        0.007153024   0.755987676   0.013705187
C        0.085020287   0.670040576   0.019230593
C        0.248834653   0.755987676   0.013705187
C        0.326783662   0.670983061   0.002420161
C        0.484356030   0.751981994  -0.012343356
Br       0.543006734   0.586013469  -0.039109137
C        0.767625964   0.751981994  -0.012343356
C        0.844199398   0.670983061   0.002420161
C        0.087766835   0.922640552   0.008329833
C        0.334873716   0.922640552   0.008329833
C        0.581094186   0.915344794  -0.005103031
C        0.834250607   0.915344794  -0.005103031
O        0.580340532   0.660681065   0.178286932
O        0.505485379   0.510970760   0.178506919
K_POINTS crystal_b 
4
0.0000000000    0.0000000000    0.0000000000 17
0.0000000000    0.5000000000    0.0000000000 10
0.3333333333    0.3333333333    0.0000000000 20
0.0000000000    0.0000000000    0.0000000000 1

