 &CONTROL
                 calculation = 'nscf' ,
                      outdir = './tmp/' ,
                  pseudo_dir = '/home/deleted/pseudo_psl' ,
                      prefix = 'GBr_op' ,
                   verbosity = 'high' ,
               etot_conv_thr = 1.0D-5 ,
               forc_conv_thr = 4.0D-4 ,
                       nstep = 1000 ,
                    dipfield = .true. ,
 /
 &SYSTEM
                       ibrav = 4,
                           A = 9.88 ,
                           C = 15 ,
                         nat = 34,
                        ntyp = 4,
                     ecutwfc = 40.424239707 ,
                     ecutrho = 404.24239707 ,
                 occupations = 'tetrahedra' ,
                     degauss = 0.01 ,
				   input_dft = 'vdW-DF' ,
    nspin = 2 ,
    starting_magnetization(1) = 0.5,
    starting_magnetization(2) = 0.5,
    starting_magnetization(3) = 0.5,
 /
 &ELECTRONS
            electron_maxstep = 50001,
                    conv_thr = 1.0D-6 ,
                 mixing_mode = 'local-TF' ,
                 mixing_beta = 0.5 ,
 /
ATOMIC_SPECIES
    C   12.01100  C.revpbe-n-kjpaw_psl.0.1.UPF 
   Br   79.90350  Br.revpbe-n-kjpaw_psl.0.2.UPF 
    O   15.99940  O.revpbe-n-kjpaw_psl.0.1.UPF 
    H   1.008000  H.revpbe-kjpaw_psl.0.1.UPF
ATOMIC_POSITIONS (crystal)
C        0.003713743   0.003566583  -0.006835611
C        0.249933953  -0.006861692  -0.007361454
C        0.506524742   0.003592950  -0.008238391
C        0.762931838   0.019262756  -0.007515417
C        0.013071219   0.260420695  -0.006967931
C        0.090242777   0.170915509  -0.006655805
C        0.257181193   0.247480860  -0.006769752
C        0.330968606   0.155214844  -0.006970491
C        0.497016993   0.247507993  -0.007403101
C        0.587378860   0.170933393  -0.007685859
C        0.754057969   0.260460239  -0.007548814
C        0.844000071   0.181335934  -0.007274189
C        0.006296989   0.505863703  -0.007695283
C        0.101716137   0.425145936  -0.007373780
C        0.279117967   0.502778190  -0.007654281
C        0.357492677   0.409491776  -0.007334455
C        0.558680665   0.409562523  -0.007731893
C        0.730407364   0.502896978  -0.008057404
C        0.830171923   0.425213726  -0.007703270
C       -0.007803836   0.749334098  -0.007792061
C        0.087685067   0.668674028  -0.007959049
C        0.263769771   0.749330491  -0.008241837
C        0.363571995   0.671689900  -0.008219507
C        0.535206028   0.764983368  -0.008316830
Br       0.595771204   0.572447112   0.228997703
C        0.736457640   0.765039903  -0.008066069
C        0.814830332   0.671763181  -0.008164091
C        0.080873933   0.914056227  -0.007180880
C        0.339904177   0.914085986  -0.008219695
C        0.596887430   0.927035026  -0.008186722
C        0.836756738   0.927018632  -0.007380514
O        0.357598539   0.864781087   0.209828074
O        0.499823254   0.913438307   0.216419982
H        0.609277480   0.709858229   0.270663601
K_POINTS automatic 
  20 20 1   0 0 0 

