 &CONTROL
                 calculation = 'nscf' ,
                      outdir = './tmp/' ,
                  pseudo_dir = '/home/deleted/pseudo_psl' ,
                      prefix = 'GCl_op' ,
                   verbosity = 'high' ,
               etot_conv_thr = 1.0D-5 ,
               forc_conv_thr = 4.0D-4 ,
                       nstep = 1000 ,
                    dipfield = .true. ,
 /
 &SYSTEM
                       ibrav = 4,
                           A = 9.88 ,
                           C = 15 ,
                         nat = 32,
                        ntyp = 3,
                     ecutwfc = 40.424239707 ,
                     ecutrho = 404.24239707 ,
                 occupations = 'tetrahedra' ,
                     degauss = 0.01 ,
				   input_dft = 'vdW-DF' ,
    nspin = 2 ,
    starting_magnetization(1) = 0.5,
    starting_magnetization(2) = 0.5,
    starting_magnetization(3) = 0.5,
 /
 &ELECTRONS
            electron_maxstep = 50001,
                    conv_thr = 1.0D-6 ,
                 mixing_mode = 'local-TF' ,
                 mixing_beta = 0.5 ,
 /
ATOMIC_SPECIES
    C   12.01100  C.revpbe-n-kjpaw_psl.0.1.UPF 
   Cl   35.45200  Cl.revpbe-n-kjpaw_psl.0.3.0.UPF 
    O   15.99940  O.revpbe-n-kjpaw_psl.0.1.UPF 
ATOMIC_POSITIONS (crystal)
C       -0.002728630  -0.000601811  -0.004335039
C        0.246244912  -0.003248509  -0.017310111
C        0.497915736   0.002394114  -0.003740138
C        0.747665330   0.002151718   0.020200327
C       -0.001130312   0.250637001  -0.006763430
C        0.081312417   0.166950102  -0.009381663
C        0.250014818   0.249510061  -0.012863972
C        0.328076351   0.161079913  -0.015018811
C        0.493827076   0.250057002  -0.012297410
C        0.580191863   0.168696658  -0.008340119
C        0.746206411   0.250789480  -0.006177308
C        0.830844380   0.167194288   0.001013907
C       -0.003293712   0.499162746  -0.015429417
C        0.084833014   0.416740224  -0.012722262
C        0.259922561   0.501063107  -0.009295414
C        0.341404710   0.412000812  -0.008981301
C        0.565728063   0.413143046  -0.007922065
C        0.735522760   0.499933826  -0.004790049
C        0.825936712   0.417013182  -0.010507679
C       -0.004990417   0.748990879  -0.018643583
C        0.078796743   0.664679244  -0.023455869
C        0.246310830   0.747181705  -0.018767632
C        0.329395784   0.666282520  -0.003597016
C        0.469137885   0.764220915   0.052317460
Cl       0.700741606   0.683111230   0.153277854
C        0.777379123   0.758875526   0.047575288
C        0.831512967   0.668396548   0.003093640
C        0.078838430   0.914746782  -0.015053025
C        0.330311156   0.915186201  -0.014184272
C        0.581381354   0.924783936   0.019504304
C        0.836381294   0.919387903   0.023860039
O        0.463749210   0.727837965   0.131144691
K_POINTS automatic 
  20 20 1   0 0 0 

