 &BANDS
                      prefix = 'H' ,
                      outdir = './tmp/' ,
                     filband = 'H-bands' ,
                     plot_2d = .false. ,
 /
