 &CONTROL
                 calculation = 'relax' ,
                      outdir = './tmp/' ,
                  pseudo_dir = '/home/deleted/pseudo_psl' ,
                      prefix = 'GBr_op' ,
                   verbosity = 'high' ,
               etot_conv_thr = 1.0D-5 ,
               forc_conv_thr = 4.0D-4 ,
                       nstep = 1000 ,
                    dipfield = .true. ,
 /
 &SYSTEM
                       ibrav = 4,
                           A = 9.88 ,
                           C = 15 ,
                         nat = 34,
                        ntyp = 4,
                     ecutwfc = 40.424239707 ,
                     ecutrho = 404.24239707 ,
                 occupations = 'smearing' ,
                     degauss = 0.01 ,
				   input_dft = 'vdW-DF' ,
 /
 &ELECTRONS
            electron_maxstep = 50001,
                    conv_thr = 1.0D-6 ,
                 mixing_mode = 'local-TF' ,
                 mixing_beta = 0.5 ,
 /
 &IONS
                ion_dynamics = 'bfgs' ,
 /
ATOMIC_SPECIES
    C   12.01100  C.revpbe-n-kjpaw_psl.0.1.UPF 
   Br   79.90350  Br.revpbe-n-kjpaw_psl.0.2.UPF 
    O   15.99940  O.revpbe-n-kjpaw_psl.0.1.UPF 
    H   1.008000  H.revpbe-kjpaw_psl.0.1.UPF
ATOMIC_POSITIONS crystal 
C       -0.001883065  -0.000947682  -0.013216022
C        0.244340299  -0.011319401  -0.012823011
C        0.500935383  -0.000947682  -0.013216022
C        0.757137441   0.014274880  -0.013763558
C        0.007155439   0.255669232  -0.012841807
C        0.084499567   0.166259471  -0.012826273
C        0.251476863   0.242993400  -0.012613291
C        0.325482182   0.150964367  -0.012559954
C        0.491516537   0.242993400  -0.012613291
C        0.581759903   0.166259471  -0.012826273
C        0.748513793   0.255669232  -0.012841807
C        0.838287841   0.176575685  -0.013079114
C        0.000510169   0.501020339  -0.013047917
C        0.095637275   0.420437340  -0.012904459
C        0.273182809   0.498264358  -0.013117151
C        0.351384331   0.405062798  -0.012802774
C        0.553678465   0.405062798  -0.012802774
C        0.725081549   0.498264358  -0.013117151
C        0.824800065   0.420437340  -0.012904459
C       -0.013065110   0.744784439  -0.013426637
C        0.082109150   0.664218300  -0.013319112
C        0.257849550   0.744784439  -0.013426637
C        0.357407892   0.666984528  -0.013655880
C        0.528858851   0.760295146  -0.013838581
Br       0.614707757   0.729415515   0.199171009
C        0.731436296   0.760295146  -0.013838581
C        0.809576635   0.666984528  -0.013655880
C        0.075425370   0.909589652  -0.013120397
C        0.334164281   0.909589652  -0.013120397
C        0.591219046   0.922434059  -0.013846475
C        0.831215012   0.922434059  -0.013846475
O        0.689620163   0.879240324   0.381504634
O        0.622644924   0.745289848   0.347669848
H        0.745575262   0.767543726   0.364587241
K_POINTS automatic 
  4 4 1   0 0 0 

