 &CONTROL
                 calculation = 'scf' ,
                      outdir = './tmp/' ,
                  pseudo_dir = '/home/deleted/pseudo_psl' ,
                      prefix = 'GBr_op' ,
                   verbosity = 'high' ,
               etot_conv_thr = 1.0D-5 ,
               forc_conv_thr = 4.0D-4 ,
                       nstep = 1000 ,
                    dipfield = .true. ,
 /
 &SYSTEM
                       ibrav = 4,
                           A = 9.88 ,
                           C = 15 ,
                         nat = 34,
                        ntyp = 4,
                     ecutwfc = 40.424239707 ,
                     ecutrho = 404.24239707 ,
                 occupations = 'smearing' ,
                     degauss = 0.01 ,
				   input_dft = 'vdW-DF' ,
 /
 &ELECTRONS
            electron_maxstep = 50001,
                    conv_thr = 1.0D-6 ,
                 mixing_mode = 'local-TF' ,
                 mixing_beta = 0.5 ,
 /
ATOMIC_SPECIES
    C   12.01100  C.revpbe-n-kjpaw_psl.0.1.UPF 
   Br   79.90350  Br.revpbe-n-kjpaw_psl.0.2.UPF 
    O   15.99940  O.revpbe-n-kjpaw_psl.0.1.UPF 
    H   1.008000  H.revpbe-kjpaw_psl.0.1.UPF
ATOMIC_POSITIONS crystal 
C       -0.001961261  -0.000721399  -0.013133715
C        0.244243547  -0.011076773  -0.012734075
C        0.500849645  -0.000690362  -0.013763530
C        0.756980969   0.014224765  -0.014442536
C        0.006994927   0.255817731  -0.013001406
C        0.084443486   0.166452817  -0.012734370
C        0.251428801   0.243283007  -0.012523925
C        0.325503835   0.151401075  -0.012468030
C        0.491559215   0.243331962  -0.012896049
C        0.581708990   0.166477584  -0.013254465
C        0.748573720   0.255807028  -0.013341384
C        0.838270915   0.176790892  -0.013515876
C        0.000443370   0.501094310  -0.013558605
C        0.095478079   0.420640499  -0.013293785
C        0.273174707   0.498619962  -0.013618264
C        0.351372467   0.405479940  -0.013100332
C        0.553829935   0.405456870  -0.013298325
C        0.725280471   0.498604851  -0.013712025
C        0.824970809   0.420617067  -0.013458797
C       -0.013034365   0.744938265  -0.013624383
C        0.082130681   0.664563834  -0.013731290
C        0.257696670   0.745066271  -0.013880899
C        0.357180955   0.667228153  -0.014317747
C        0.528465040   0.760494854  -0.014532794
Br       0.629585485   0.729021649   0.187914026
C        0.731229266   0.760274615  -0.013294291
C        0.809794528   0.667041879  -0.013963939
C        0.075481178   0.909898562  -0.012998175
C        0.334048464   0.909907412  -0.013393896
C        0.591088858   0.922653308  -0.014713640
C        0.831177486   0.922711247  -0.013954635
O        0.680895028   0.885869162   0.406230390
O        0.633761535   0.748708733   0.365178782
H        0.729594488   0.750887297   0.342852557
K_POINTS automatic 
  16 16 1   0 0 0 

