 &CONTROL
                 calculation = 'scf' ,
                      outdir = './tmp/' ,
                  pseudo_dir = '/home/deleted/pseudo_psl' ,
                      prefix = 'GF_op' ,
                   verbosity = 'high' ,
               etot_conv_thr = 1.0D-5 ,
               forc_conv_thr = 4.0D-4 ,
                       nstep = 1000 ,
                    dipfield = .true. ,
 /
 &SYSTEM
                       ibrav = 4,
                           A = 9.88 ,
                           C = 15 ,
                         nat = 32,
                        ntyp = 3,
                     ecutwfc = 40.424239707 ,
                     ecutrho = 404.24239707 ,
                 occupations = 'smearing' ,
                     degauss = 0.01 ,
				   input_dft = 'vdW-DF' ,
    nspin = 2 ,
    starting_magnetization(1) = 0.5,
    starting_magnetization(2) = 0.5,
    starting_magnetization(3) = 0.5,
 /
 &ELECTRONS
            electron_maxstep = 50001,
                    conv_thr = 1.0D-6 ,
                 mixing_mode = 'local-TF' ,
                 mixing_beta = 0.5 ,
 /
ATOMIC_SPECIES
    C   12.01100  C.revpbe-n-kjpaw_psl.0.1.UPF 
    F   18.99800  F.revpbe-n-kjpaw_psl.0.1.UPF 
    O   15.99940  O.revpbe-n-kjpaw_psl.0.1.UPF 
ATOMIC_POSITIONS (crystal)
C       -0.004568656   0.001876374   0.004221144
C        0.244265312   0.000215977   0.011949290
C        0.494913285   0.002217654   0.009838847
C        0.746548541   0.004297145  -0.002080880
C       -0.003465434   0.252887461   0.005981733
C        0.077782096   0.168164240   0.009242483
C        0.244086339   0.249018098   0.013168751
C        0.326725726   0.164940871   0.012293233
C        0.493421500   0.249239625   0.009261392
C        0.578569008   0.168242235   0.006388892
C        0.744794960   0.252600688   0.004875702
C        0.829113672   0.169440338   0.002343787
C       -0.004832218   0.501902661   0.008513873
C        0.081165796   0.419053084   0.010630306
C        0.249750981   0.501447106   0.016953212
C        0.327628074   0.412978018   0.015549524
C        0.573907796   0.413165164   0.007002986
C        0.740102272   0.501408510  -0.001068157
C        0.826536636   0.418827157   0.004019487
C       -0.006341966   0.751452334   0.006984593
C        0.077798780   0.667828252   0.012155946
C        0.245434306   0.751313665   0.015774499
C        0.333545796   0.670505912   0.020401305
C        0.495593098   0.759871287   0.027050080
F        0.644013896   0.700030390  -0.095683627
C        0.759816884   0.761076335  -0.031531279
C        0.827587888   0.669700820  -0.007481846
C        0.077626106   0.917702484   0.007924339
C        0.328570924   0.917509247   0.013633528
C        0.579465045   0.919161117   0.010056911
C        0.830755290   0.921697086  -0.010734160
O        0.489688261   0.490228667   0.015697440
K_POINTS automatic 
  16 16 1   0 0 0 

