&INPUTPP
	outdir = './tmp/'
	prefix = 'GF_op'
	filplot = 'GF_chg-up'
	plot_num = 0,
	spin_component = 1
/
&PLOT
	nfile = 1
	filepp(1) = 'GF_chg-up'
	weight(1) = 1.0,
	fileout = 'GF_chg-up.xsf'
	iflag = 3
	output_format = 5
/
