 &CONTROL
                 calculation = 'scf' ,
                      outdir = './tmp/' ,
                  pseudo_dir = '/home/deleted/pseudo_psl' ,
                      prefix = 'GI_op' ,
                   verbosity = 'high' ,
               etot_conv_thr = 1.0D-5 ,
               forc_conv_thr = 4.0D-4 ,
                       nstep = 1000 ,
                    dipfield = .true. ,
 /
 &SYSTEM
                       ibrav = 4,
                           A = 9.88 ,
                           C = 15 ,
                         nat = 33,
                        ntyp = 3,
                     ecutwfc = 40.424239707 ,
                     ecutrho = 404.24239707 ,
                 occupations = 'smearing' ,
                     degauss = 0.01 ,
				   input_dft = 'vdW-DF' ,
    nspin = 2 ,
    starting_magnetization(1) = 0.5,
    starting_magnetization(2) = 0.5,
    starting_magnetization(3) = 0.5,
 /
 &ELECTRONS
            electron_maxstep = 50001,
                    conv_thr = 1.0D-6 ,
                 mixing_mode = 'local-TF' ,
                 mixing_beta = 0.5 ,
 /
ATOMIC_SPECIES
    C   12.01100  C.revpbe-n-kjpaw_psl.0.1.UPF 
    I  126.90400  I.revpbe-n-kjpaw_psl.0.2.UPF 
    O   15.99940  O.revpbe-n-kjpaw_psl.0.1.UPF 
ATOMIC_POSITIONS (crystal)
C       -0.001638948  -0.000564135  -0.005162738
C        0.244498028  -0.011003945  -0.004711894
C        0.501074813  -0.000564135  -0.005162738
C        0.757145071   0.014290142  -0.005733190
C        0.007176360   0.255961026  -0.005817792
C        0.084739548   0.166648146  -0.005311411
C        0.251737743   0.243486552  -0.005385400
C        0.325802647   0.151605297  -0.004808257
C        0.491748809   0.243486552  -0.005385400
C        0.581908597   0.166648146  -0.005311411
C        0.748784666   0.255961026  -0.005817792
C        0.838514588   0.177029178  -0.005651874
C        0.000593369   0.501186739  -0.006844160
C        0.095680067   0.420824571  -0.006652929
C        0.273318880   0.498789679  -0.007167378
C        0.351854771   0.405764700  -0.006417113
C        0.553909929   0.405764700  -0.006417113
C        0.725470798   0.498789679  -0.007167378
C        0.825144503   0.420824571  -0.006652929
C       -0.012751939   0.745095351  -0.006329404
C        0.082381756   0.664763511  -0.006660225
C        0.257847290   0.745095351  -0.006329404
C        0.357088992   0.667176648  -0.007097091
C        0.528734110   0.760337921  -0.005667240
I        0.591541046   0.683082092   0.206146611
C        0.731603811   0.760337921  -0.005667240
C        0.810087654   0.667176648  -0.007097091
C        0.075789886   0.910043115  -0.005155528
C        0.334253228   0.910043115  -0.005155528
C        0.591341414   0.922772955  -0.005610125
C        0.831431541   0.922772955  -0.005610125
O        0.647783029   0.670644600   0.475885501
O        0.522861571   0.670644600   0.475885501
K_POINTS automatic 
  16 16 1   0 0 0 

