 &CONTROL
                 calculation = 'bands' ,
                      outdir = './tmp/' ,
                  pseudo_dir = '/home/deleted/pseudo_psl' ,
                      prefix = 'GCl_op' ,
                   verbosity = 'high' ,
               etot_conv_thr = 1.0D-5 ,
               forc_conv_thr = 4.0D-4 ,
                       nstep = 1000 ,
                    dipfield = .true. ,
 /
 &SYSTEM
                       ibrav = 4,
                           A = 9.88 ,
                           C = 15 ,
                         nat = 34,
                        ntyp = 4,
                     ecutwfc = 40.424239707 ,
                     ecutrho = 404.24239707 ,
                 occupations = 'tetrahedra' ,
                     degauss = 0.01 ,
				   input_dft = 'vdW-DF' ,
    nspin = 2 ,
    starting_magnetization(1) = 0.5,
    starting_magnetization(2) = 0.5,
    starting_magnetization(3) = 0.5,
 /
 &ELECTRONS
            electron_maxstep = 50001,
                    conv_thr = 1.0D-6 ,
                 mixing_mode = 'local-TF' ,
                 mixing_beta = 0.5 ,
 /
ATOMIC_SPECIES
    C   12.01100  C.revpbe-n-kjpaw_psl.0.1.UPF 
   Cl   35.45200  Cl.revpbe-n-kjpaw_psl.0.3.0.UPF 
    O   15.99940  O.revpbe-n-kjpaw_psl.0.1.UPF 
    H   1.008000  H.revpbe-kjpaw_psl.0.1.UPF
ATOMIC_POSITIONS (crystal)
C        0.015464862   0.014565393  -0.000521987
C        0.260965994   0.008163068  -0.009660756
C        0.512803870   0.014512770  -0.000769723
C        0.766520873   0.019423814   0.018813511
C        0.016548906   0.265079273   0.000271107
C        0.098663645   0.180941585  -0.004175572
C        0.265866349   0.260733414  -0.008908400
C        0.342537985   0.171421697  -0.011155107
C        0.508619861   0.260819636  -0.008961581
C        0.596031133   0.180916767  -0.004320818
C        0.762246860   0.264970615   0.000326432
C        0.848472668   0.183188826   0.006354735
C        0.013239909   0.512476756  -0.001625864
C        0.102542704   0.430553202  -0.001096642
C        0.275931671   0.511180004   0.000525147
C        0.357444111   0.422991984  -0.005212232
C        0.578980139   0.422979792  -0.004864528
C        0.749058013   0.511223726   0.001269849
C        0.842007207   0.430604194  -0.000746401
C        0.010855830   0.760268489  -0.003628271
C        0.095719331   0.677409697  -0.006205853
C        0.263463347   0.760346201  -0.004540911
C        0.349629602   0.679072975   0.007672716
C        0.506990358   0.774948480   0.028546448
Cl       0.604436514   0.695709168   0.091843123
C        0.781068220   0.775005823   0.028863767
C        0.843328541   0.679195923   0.008535923
C        0.094124205   0.926609028  -0.005425158
C        0.346229146   0.926439152  -0.005950715
C        0.598325228   0.936495680   0.017509106
C        0.851788517   0.936520977   0.017505060
O        0.331455664   0.570888181   0.216653963
O        0.217365578   0.615406228   0.200702611
H        0.313829870   0.538202340   0.279301251
K_POINTS automatic 
  20 20 1   0 0 0 

