 &CONTROL
                 calculation = 'nscf' ,
                      outdir = './tmp/' ,
                  pseudo_dir = '/home/deleted/pseudo_psl' ,
                      prefix = 'GF_ip' ,
                   verbosity = 'high' ,
               etot_conv_thr = 1.0D-5 ,
               forc_conv_thr = 4.0D-4 ,
                       nstep = 1000 ,
                    dipfield = .true. ,
 /
 &SYSTEM
                       ibrav = 4,
                           A = 9.88 ,
                           C = 15 ,
                         nat = 34,
                        ntyp = 4,
                     ecutwfc = 40.424239707 ,
                     ecutrho = 404.24239707 ,
                 occupations = 'tetrahedra' ,
                     degauss = 0.01 ,
				   input_dft = 'vdW-DF' ,
 /
 &ELECTRONS
            electron_maxstep = 50001,
                    conv_thr = 1.0D-6 ,
                 mixing_mode = 'local-TF' ,
                 mixing_beta = 0.5 ,
 /
ATOMIC_SPECIES
    C   12.01100  C.revpbe-n-kjpaw_psl.0.1.UPF 
    F   18.99800  F.revpbe-n-kjpaw_psl.0.1.UPF 
    O   15.99940  O.revpbe-n-kjpaw_psl.0.1.UPF 
    H   1.008000  H.revpbe-kjpaw_psl.0.1.UPF
ATOMIC_POSITIONS crystal 
C        0.008687289   0.016422882   0.003172758
C        0.257689070   0.013778197   0.010334321
C        0.507588068   0.017725898   0.015357564
C        0.755653308   0.017105094   0.004637040
C        0.009005711   0.267412059   0.003011430
C        0.091314368   0.184104684   0.006677098
C        0.259257802   0.267528099   0.009005666
C        0.340600634   0.179982198   0.012672437
C        0.503163896   0.263452199   0.017588724
C        0.589650459   0.184141258   0.011489177
C        0.756164081   0.267270887   0.007887555
C        0.839693150   0.184684436   0.003536220
C        0.008207343   0.516787761   0.002644194
C        0.094226488   0.433718238   0.005651988
C        0.265799710   0.516200654   0.014334897
C        0.347096993   0.429452635   0.008075051
C        0.582439087   0.432654552   0.034764221
C        0.753290115   0.518293965  -0.000393318
C        0.837721642   0.435609196   0.002375428
C        0.008745927   0.766348525  -0.000325963
C        0.091344781   0.682333798   0.005139121
C        0.258114270   0.764103091   0.014888093
C        0.340322669   0.682315456   0.024875715
C        0.504088224   0.774550519   0.053452665
F        0.629296175   0.702711148  -0.067924168
C        0.772791647   0.776072781  -0.027886207
C        0.841828840   0.683754838  -0.010921425
C        0.090768710   0.932188297   0.003390930
C        0.340746257   0.932400534   0.016096931
C        0.592824716   0.937439775   0.020179433
C        0.842432900   0.934787588  -0.007048237
O        0.564236087   0.725645898   0.108730318
O        0.581082331   0.465250665   0.125161479
H        0.581871273   0.565653454   0.130874902
K_POINTS automatic 
  20 20 1   0 0 0 

