 &CONTROL
                 calculation = 'scf' ,
                      outdir = './tmp/' ,
                  pseudo_dir = '/home/deleted/pseudo_psl' ,
                      prefix = 'GCl_op' ,
                    dipfield = .true. ,
                   verbosity = 'high',
                       nstep = 1000,
               forc_conv_thr = 4.0D-4,
               etot_conv_thr = 1.0D-5
 /
 &SYSTEM
                       ibrav = 4,
                           A = 9.88 ,
                           C = 15 ,
                         nat = 32,
                        ntyp = 2,
                     ecutwfc = 40.424239707 ,
                     ecutrho = 404.24239707 ,
                 occupations = 'smearing' ,
                     degauss = 0.01 ,
				   input_dft = 'vdW-DF' ,
 /
 &ELECTRONS
            electron_maxstep = 50001,
                    conv_thr = 1.0D-6 ,
                 mixing_mode = 'local-TF' ,
                 mixing_beta = 0.5 ,
 /
ATOMIC_SPECIES
    C   12.01100  C.revpbe-n-kjpaw_psl.0.1.UPF 
   Cl   35.45200  Cl.revpbe-n-kjpaw_psl.0.3.0.UPF 
ATOMIC_POSITIONS crystal 
C        0.000142592  -0.000142592  -0.001303831
C        0.250205086   0.000410172  -0.000448349
C        0.499714816  -0.000142592  -0.001303831
C        0.749911587  -0.000176825  -0.001433003
C        0.000176825   0.250088413  -0.001433003
C        0.083370771   0.167132536  -0.001406761
C        0.252132975   0.251488618  -0.000585083
C        0.332823020   0.165646041  -0.000416001
C        0.499355643   0.251488618  -0.000585083
C        0.583761764   0.167132536  -0.001406761
C        0.749911587   0.250088413  -0.001433003
C        0.833333333   0.166666667  -0.001432925
C        0.000142592   0.500285184  -0.001303831
C        0.083370771   0.416238236  -0.001406761
C        0.252132975   0.500644357  -0.000585083
C        0.328081643   0.414040822   0.000304816
Cl       0.500000000   0.500000000   0.158415649
C        0.585959178   0.414040822   0.000304816
C        0.748511382   0.500644357  -0.000585083
C        0.832867464   0.416238236  -0.001406761
C       -0.000410172   0.749794914  -0.000448349
C        0.083162957   0.666325915  -0.000603077
C        0.250205086   0.749794914  -0.000448349
C        0.332823020   0.667176980  -0.000416001
C        0.499355643   0.747867025  -0.000585083
C        0.585959178   0.671918357   0.000304816
C        0.748511382   0.747867025  -0.000585083
C        0.834353959   0.667176980  -0.000416001
C        0.083162957   0.916837043  -0.000603077
C        0.333674085   0.916837043  -0.000603077
C        0.583761764   0.916629229  -0.001406761
C        0.832867464   0.916629229  -0.001406761
K_POINTS automatic 
  16 16 1   0 0 0 

