 &CONTROL
                 calculation = 'relax' ,
                      outdir = './tmp/' ,
                  pseudo_dir = '/home/deleted/pseudo_psl' ,
                      prefix = 'GCl_op' ,
                   verbosity = 'high' ,
               etot_conv_thr = 1.0D-5 ,
               forc_conv_thr = 4.0D-4 ,
                       nstep = 1000 ,
                    dipfield = .true. ,
 /
 &SYSTEM
                       ibrav = 4,
                           A = 9.88 ,
                           C = 15 ,
                         nat = 34,
                        ntyp = 4,
                     ecutwfc = 40.424239707 ,
                     ecutrho = 404.24239707 ,
                 occupations = 'smearing' ,
                     degauss = 0.01 ,
				   input_dft = 'vdW-DF' ,
    nspin = 2 ,
    starting_magnetization(1) = 0.5,
    starting_magnetization(2) = 0.5,
    starting_magnetization(3) = 0.5,
	starting_magnetization(4) = 0.5,
 /
 &ELECTRONS
            electron_maxstep = 50001,
                    conv_thr = 1.0D-6 ,
                 mixing_mode = 'local-TF' ,
                 mixing_beta = 0.5 ,
 /
 &IONS
                ion_dynamics = 'bfgs' ,
 /
ATOMIC_SPECIES
    C   12.01100  C.revpbe-n-kjpaw_psl.0.1.UPF 
   Cl   35.45200  Cl.revpbe-n-kjpaw_psl.0.3.0.UPF 
    O   15.99940  O.revpbe-n-kjpaw_psl.0.1.UPF 
    H   1.008000  H.revpbe-kjpaw_psl.0.1.UPF
ATOMIC_POSITIONS (crystal)
C        0.004754129   0.001822869  -0.005803404
C        0.250228986  -0.004629046  -0.014336530
C        0.502083620   0.001795601  -0.005791834
C        0.755828859   0.006645970   0.012838030
C        0.005822220   0.252241667  -0.005108287
C        0.088019670   0.168221283  -0.009472868
C        0.255288261   0.248044388  -0.013926436
C        0.331826335   0.158582071  -0.015918650
C        0.497794945   0.248025960  -0.013665595
C        0.585246075   0.168206935  -0.009201229
C        0.751477383   0.252244250  -0.004795474
C        0.837753870   0.170453018   0.000789641
C        0.002356461   0.499646889  -0.006527547
C        0.091875911   0.417811503  -0.006162566
C        0.265397064   0.498448138  -0.004435865
C        0.347238812   0.410235344  -0.010191193
C        0.567919055   0.410250325  -0.009771667
C        0.738036499   0.498450416  -0.003712438
C        0.831017971   0.417829777  -0.005686267
C       -0.000080701   0.747530856  -0.008521133
C        0.084861749   0.664674594  -0.010796497
C        0.252691660   0.747498080  -0.008978707
C        0.339123462   0.666375842   0.002531528
C        0.497013501   0.762120876   0.022839572
Cl       0.593567437   0.683273868   0.087223988
C        0.769620633   0.762101043   0.022881009
C        0.832324876   0.666513456   0.003303112
C        0.083332788   0.913822468  -0.010375382
C        0.335541317   0.913805035  -0.010507436
C        0.587754056   0.923678028   0.011710175
C        0.840948502   0.923691555   0.011651555
O        0.346468047   0.593023171   0.210868312
O        0.393533208   0.540897110   0.273716749
H        0.374286526   0.685334121   0.304845441
K_POINTS automatic 
  4 4 1   0 0 0 

