 &CONTROL
                 calculation = 'nscf' ,
                      outdir = './tmp/' ,
                  pseudo_dir = '/home/deleted/pseudo_psl' ,
                      prefix = 'GI_ip' ,
                   verbosity = 'high' ,
               etot_conv_thr = 1.0D-5 ,
               forc_conv_thr = 4.0D-4 ,
                       nstep = 1000 ,
                    dipfield = .true. ,
 /
 &SYSTEM
                       ibrav = 4,
                           A = 9.88 ,
                           C = 15 ,
                         nat = 34,
                        ntyp = 4,
                     ecutwfc = 40.424239707 ,
                     ecutrho = 404.24239707 ,
                 occupations = 'tetrahedra' ,
                     degauss = 0.01 ,
				   input_dft = 'vdW-DF' ,
 /
 &ELECTRONS
            electron_maxstep = 50001,
                    conv_thr = 1.0D-6 ,
                 mixing_mode = 'local-TF' ,
                 mixing_beta = 0.5 ,
 /
ATOMIC_SPECIES
    C   12.01100  C.revpbe-n-kjpaw_psl.0.1.UPF 
    I  126.90400  I.revpbe-n-kjpaw_psl.0.2.UPF 
    O   15.99940  O.revpbe-n-kjpaw_psl.0.1.UPF 
    H   1.008000  H.revpbe-kjpaw_psl.0.1.UPF
ATOMIC_POSITIONS crystal 
C        0.007474247   0.015287082   0.005560281
C        0.260121767   0.022638574   0.009533618
C        0.505491706   0.015237980   0.005351103
C        0.753539252   0.009307539  -0.004008709
C        0.002894075   0.261405868   0.012237491
C        0.088908496   0.181954775   0.005694760
C        0.255540177   0.268768429  -0.004996017
C        0.342761452   0.187861504  -0.003336803
C        0.511027894   0.268704563  -0.005350070
C        0.590816733   0.181895961   0.005387905
C        0.756232813   0.261411934   0.012026596
C        0.836155038   0.174510756   0.009037897
C        0.005999111   0.514435828   0.025722164
C        0.083480023   0.428226361   0.018518265
C        0.244908852   0.513309313   0.003105606
C        0.320594101   0.431489599  -0.014360152
C        0.608593173   0.431216586  -0.014560718
C        0.765914477   0.513232982   0.003156074
C        0.842361976   0.428162702   0.018394329
C        0.012657903   0.768945149   0.018876982
C        0.090070082   0.682662433   0.025993267
C        0.253785514   0.768964074   0.018698903
C        0.330204865   0.683908269   0.002922384
C        0.487469231   0.765912526  -0.015408798
I        0.548270866   0.598816961  -0.055058659
C        0.776056902   0.765992414  -0.014750997
C        0.851143123   0.683879880   0.003353807
C        0.093281176   0.935676602   0.012529933
C        0.340007896   0.935710884   0.012333324
C        0.585311628   0.928514456  -0.005829782
C        0.840969095   0.928558587  -0.005626683
O        0.543374994   0.581224037   0.117501268
O        0.619891086   0.728241114   0.167211795
H        0.530080804   0.728322137   0.194704083
K_POINTS automatic 
  20 20 1   0 0 0 

