 &CONTROL
                 calculation = 'scf' ,
                      outdir = './tmp/' ,
                  pseudo_dir = '/home/deleted/pseudo_psl' ,
                      prefix = 'GF_ip' ,
                   verbosity = 'high' ,
               etot_conv_thr = 1.0D-5 ,
               forc_conv_thr = 4.0D-4 ,
                       nstep = 1000 ,
                    dipfield = .true. ,
 /
 &SYSTEM
                       ibrav = 4,
                           A = 9.88 ,
                           C = 15 ,
                         nat = 33,
                        ntyp = 3,
                     ecutwfc = 40.424239707 ,
                     ecutrho = 404.24239707 ,
                 occupations = 'smearing' ,
                     degauss = 0.01 ,
				   input_dft = 'vdW-DF' ,
 /
 &ELECTRONS
            electron_maxstep = 50001,
                    conv_thr = 1.0D-6 ,
                 mixing_mode = 'local-TF' ,
                 mixing_beta = 0.5 ,
 /
ATOMIC_SPECIES
    C   12.01100  C.revpbe-n-kjpaw_psl.0.1.UPF 
    F   18.99800  F.revpbe-n-kjpaw_psl.0.1.UPF 
    O   15.99940  O.revpbe-n-kjpaw_psl.0.1.UPF 
ATOMIC_POSITIONS crystal 
C        0.003688500   0.003939517   0.006080893
C        0.248006689  -0.003986623   0.007864805
C        0.500251017   0.003939517   0.006080893
C        0.754759696   0.009519392   0.000778552
C        0.005180128   0.254796866   0.004236590
C        0.087080277   0.170238423   0.006355575
C        0.254156779   0.249262572   0.007252189
C        0.329437023   0.158874046   0.008258413
C        0.495105794   0.249262572   0.007252189
C        0.583158145   0.170238423   0.006355575
C        0.749616737   0.254796866   0.004236590
C        0.836853638   0.173707276   0.002713470
C        0.000835381   0.501670763   0.003862022
C        0.091910475   0.419986590   0.003881080
C        0.266568015   0.499882760   0.003728779
C        0.349310720   0.411328702   0.005411181
C        0.562017981   0.411328702   0.005411181
C        0.733314746   0.499882760   0.003728779
C        0.828076113   0.419986590   0.003881080
C       -0.002911112   0.748949536   0.005256608
C        0.083201653   0.666403308   0.005239240
C        0.251860647   0.748949536   0.005256608
C        0.340122631   0.667546478   0.002443058
C        0.500967992   0.764948311   0.002501436
F        0.595478620   0.690957241  -0.042939141
C        0.763980319   0.764948311   0.002501436
C        0.827423846   0.667546478   0.002443058
C        0.081228135   0.914908054   0.006856991
C        0.333679917   0.914908054   0.006856991
C        0.587954301   0.925902951   0.001078404
C        0.837948649   0.925902951   0.001078404
O        0.675218002   0.850436003   0.174664129
O        0.611185206   0.722370413   0.129392942
K_POINTS automatic 
  16 16 1   0 0 0 

