 &CONTROL
                 calculation = 'scf' ,
                      outdir = './tmp/' ,
                  pseudo_dir = '/home/deleted/pseudo_psl' ,
                      prefix = 'GI_op' ,
                   verbosity = 'high' ,
               etot_conv_thr = 1.0D-5 ,
               forc_conv_thr = 4.0D-4 ,
                       nstep = 1000 ,
                    dipfield = .true. ,
 /
 &SYSTEM
                       ibrav = 4,
                           A = 9.88 ,
                           C = 15 ,
                         nat = 33,
                        ntyp = 3,
                     ecutwfc = 40.424239707 ,
                     ecutrho = 404.24239707 ,
                 occupations = 'smearing' ,
                     degauss = 0.01 ,
				   input_dft = 'vdW-DF' ,
 /
 &ELECTRONS
            electron_maxstep = 50001,
                    conv_thr = 1.0D-6 ,
                 mixing_mode = 'local-TF' ,
                 mixing_beta = 0.5 ,
 /
ATOMIC_SPECIES
    C   12.01100  C.revpbe-n-kjpaw_psl.0.1.UPF 
    I  126.90400  I.revpbe-n-kjpaw_psl.0.2.UPF 
    O   15.99940  O.revpbe-n-kjpaw_psl.0.1.UPF 
ATOMIC_POSITIONS crystal 
C       -0.002020421  -0.001125748  -0.003845610
C        0.244272918  -0.011454165  -0.003559422
C        0.500894674  -0.001125748  -0.003845610
C        0.757095307   0.014190612  -0.004091905
C        0.007137846   0.255553606  -0.003087388
C        0.084408242   0.166106220  -0.003273738
C        0.251386628   0.242804930  -0.003231598
C        0.325384338   0.150768678  -0.003270302
C        0.491418302   0.242804930  -0.003231598
C        0.581697977   0.166106220  -0.003273738
C        0.748415760   0.255553606  -0.003087388
C        0.838191199   0.176382399  -0.003226194
C        0.000503664   0.501007329  -0.003505140
C        0.095693532   0.420360367  -0.003314079
C        0.273214149   0.498174267  -0.003806840
C        0.351398171   0.404910740  -0.003468471
C        0.553512568   0.404910740  -0.003468471
C        0.724960118   0.498174267  -0.003806840
C        0.824666833   0.420360367  -0.003314079
C       -0.013127487   0.744749921  -0.004155000
C        0.082073227   0.664146454  -0.003957156
C        0.257877408   0.744749921  -0.004155000
C        0.357648165   0.667058874  -0.004555251
C        0.528865860   0.760258915  -0.005126097
I        0.567814053   0.635628106   0.245371841
C        0.731393054   0.760258915  -0.005126097
C        0.809410708   0.667058874  -0.004555251
C        0.075322790   0.909477503  -0.003855946
C        0.334154713   0.909477503  -0.003855946
C        0.591118598   0.922241984  -0.004542185
C        0.831123386   0.922241984  -0.004542185
O        0.759461503   0.860760382   0.217714674
O        0.601298879   0.860760382   0.217714674
K_POINTS automatic 
  16 16 1   0 0 0 

