 &CONTROL
                 calculation = 'scf' ,
                      outdir = './tmp_subs/' ,
                  pseudo_dir = '/home/deleted/pseudo_psl' ,
                      prefix = 'GF_op-subs' ,
                   verbosity = 'high' ,
               etot_conv_thr = 1.0D-5 ,
               forc_conv_thr = 4.0D-4 ,
                       nstep = 1000 ,
                    dipfield = .true. ,
 /
 &SYSTEM
                       ibrav = 4,
                           A = 9.88 ,
                           C = 15 ,
                         nat = 31,
                        ntyp = 2,
                     ecutwfc = 40.424239707 ,
                     ecutrho = 404.24239707 ,
                 occupations = 'smearing' ,
                     degauss = 0.01 ,
				   input_dft = 'vdW-DF' ,
    nspin = 2 ,
    starting_magnetization(1) = 0.5,
    starting_magnetization(2) = 0.5,
 /
 &ELECTRONS
            electron_maxstep = 50001,
                    conv_thr = 1.0D-6 ,
                 mixing_mode = 'local-TF' ,
                 mixing_beta = 0.5 ,
 /
ATOMIC_SPECIES
    C   12.01100  C.revpbe-n-kjpaw_psl.0.1.UPF 
    F   18.99800  F.revpbe-n-kjpaw_psl.0.1.UPF 
ATOMIC_POSITIONS (crystal)
C       -0.000258366   0.000277457   0.000066345
C        0.246549438  -0.005129690   0.007845153
C        0.498496993   0.000839580   0.011855897
C        0.748105931   0.002311385   0.000905149
C        0.001025911   0.251348987  -0.000211103
C        0.083268908   0.167287304   0.003353184
C        0.251166283   0.248589565   0.005023556
C        0.328137380   0.158870009   0.006201199
C        0.493734063   0.247807269   0.004130827
C        0.580427421   0.167181880   0.004400955
C        0.746619727   0.251428719   0.001877541
C        0.832257846   0.168768336  -0.000243308
C       -0.002298757   0.499069912   0.001370231
C        0.087175153   0.417278768   0.002590675
C        0.262223152   0.500388905   0.010278103
C        0.343863700   0.410699496   0.005961992
C        0.563467492   0.410642987   0.000053017
C        0.733141839   0.498680066  -0.006280153
C        0.825747396   0.417319456  -0.001035613
C       -0.004334640   0.747775260  -0.000336325
C        0.080573343   0.664669829   0.004603514
C        0.248012622   0.746063286   0.012917917
C        0.333152914   0.665467081   0.021680611
C        0.497716659   0.757972458   0.050542147
F        0.621525558   0.692044649  -0.074306751
C        0.763455497   0.761159324  -0.032240348
C        0.828718998   0.667365932  -0.013742125
C        0.079324876   0.913364171   0.002422802
C        0.330895967   0.913858148   0.013308150
C        0.584511848   0.921796892   0.017399467
C        0.834260094   0.920255042  -0.010886364
K_POINTS automatic 
  16 16 1   0 0 0 

