 &CONTROL
                 calculation = 'bands' ,
                      outdir = './tmp/' ,
                  pseudo_dir = '/home/deleted/pseudo_psl' ,
                      prefix = 'GCl_op' ,
                   verbosity = 'high' ,
               etot_conv_thr = 1.0D-5 ,
               forc_conv_thr = 4.0D-4 ,
                       nstep = 1000 ,
                    dipfield = .true. ,
 /
 &SYSTEM
                       ibrav = 4,
                           A = 9.88 ,
                           C = 15 ,
                         nat = 34,
                        ntyp = 4,
                     ecutwfc = 40.424239707 ,
                     ecutrho = 404.24239707 ,
                 occupations = 'tetrahedra' ,
                     degauss = 0.01 ,
				   input_dft = 'vdW-DF' ,
 /
 &ELECTRONS
            electron_maxstep = 50001,
                    conv_thr = 1.0D-6 ,
                 mixing_mode = 'local-TF' ,
                 mixing_beta = 0.5 ,
 /
ATOMIC_SPECIES
    C   12.01100  C.revpbe-n-kjpaw_psl.0.1.UPF 
   Cl   35.45200  Cl.revpbe-n-kjpaw_psl.0.3.0.UPF 
    O   15.99940  O.revpbe-n-kjpaw_psl.0.1.UPF 
    H   1.008000  H.revpbe-kjpaw_psl.0.1.UPF
ATOMIC_POSITIONS crystal 
C       -0.009005417  -0.009541690  -0.004266724
C        0.236393485  -0.016143098  -0.012423292
C        0.488403382  -0.009454196  -0.004050978
C        0.742749914  -0.003832058   0.017567804
C       -0.008117977   0.240814390  -0.003128053
C        0.074312580   0.156768877  -0.007446132
C        0.241453493   0.236524561  -0.011569239
C        0.317893672   0.146812988  -0.014050149
C        0.484073632   0.236571947  -0.011733850
C        0.571363824   0.156814770  -0.007506032
C        0.737814624   0.240786898  -0.003090022
C        0.824147807   0.159391422   0.002361119
C       -0.011358578   0.488351360  -0.003739454
C        0.078446745   0.406290774  -0.003444854
C        0.252272617   0.487034150  -0.000966033
C        0.334531794   0.398654796  -0.007089027
C        0.553164186   0.398684672  -0.007229542
C        0.723807793   0.487141305  -0.000987419
C        0.816820767   0.406282322  -0.003454815
C       -0.013864594   0.736091852  -0.005832537
C        0.071029515   0.653124866  -0.007835188
C        0.238902806   0.736129156  -0.005939893
C        0.325229859   0.655071460   0.006136809
C        0.483304836   0.752088844   0.026004631
Cl       0.580566920   0.672299720   0.087710108
C        0.757968438   0.752241323   0.026389961
C        0.818897508   0.655074355   0.006294367
C        0.069369342   0.902264883  -0.008274710
C        0.321838696   0.902267389  -0.008356820
C        0.573984089   0.912709333   0.014381695
C        0.827445106   0.912622071   0.013730293
O        0.739904116   0.986699402   0.185221582
O        0.820686202   0.912183717   0.222196188
H        0.922589128   1.001611271   0.237785263
K_POINTS automatic  
4
0.0000000000    0.0000000000    0.0000000000 17
0.0000000000    0.5000000000    0.0000000000 10
0.3333333333    0.3333333333    0.0000000000 20
0.0000000000    0.0000000000    0.0000000000 1

