 &CONTROL
                 calculation = 'bands' ,
                      outdir = './tmp/' ,
                  pseudo_dir = '/home/deleted/pseudo_psl' ,
                      prefix = 'GBr_ip' ,
                   verbosity = 'high' ,
               etot_conv_thr = 1.0D-5 ,
               forc_conv_thr = 4.0D-4 ,
                       nstep = 1000 ,
                    dipfield = .true. ,
 /
 &SYSTEM
                       ibrav = 4,
                           A = 9.88 ,
                           C = 15 ,
                         nat = 34,
                        ntyp = 4,
                     ecutwfc = 40.424239707 ,
                     ecutrho = 404.24239707 ,
                 occupations = 'tetrahedra' ,
                     degauss = 0.01 ,
				   input_dft = 'vdW-DF' ,
 /
 &ELECTRONS
            electron_maxstep = 50001,
                    conv_thr = 1.0D-6 ,
                 mixing_mode = 'local-TF' ,
                 mixing_beta = 0.5 ,
 /
ATOMIC_SPECIES
    C   12.01100  C.revpbe-n-kjpaw_psl.0.1.UPF 
   Br   79.90350  Br.revpbe-n-kjpaw_psl.0.2.UPF 
    O   15.99940  O.revpbe-n-kjpaw_psl.0.1.UPF 
    H   1.008000  H.revpbe-kjpaw_psl.0.1.UPF
ATOMIC_POSITIONS crystal 
C        0.000863844   0.001890696   0.002820071
C        0.253273495   0.008445376   0.004815959
C        0.499096458   0.001548246   0.001060717
C        0.747066183  -0.003653400  -0.004343392
C       -0.003015037   0.248861100   0.006339927
C        0.082849267   0.169100382   0.001299356
C        0.250581726   0.256270246  -0.007256952
C        0.336045227   0.174279992  -0.004618781
C        0.503597313   0.256089837  -0.004300949
C        0.584318726   0.168759294   0.002651062
C        0.749881011   0.248713284   0.008252379
C        0.830105839   0.162176134   0.005155984
C        0.000032289   0.501300456   0.017630012
C        0.077687688   0.415503543   0.010245018
C        0.240274702   0.500530449  -0.002889452
C        0.316916936   0.419519077  -0.017262376
C        0.600043063   0.419838252  -0.008632382
C        0.757611074   0.500423244   0.005845966
C        0.836027770   0.415251864   0.014612875
C        0.006160610   0.755451843   0.014350372
C        0.084115882   0.669412915   0.017351667
C        0.247516097   0.755196756   0.009682977
C        0.325122456   0.670254586  -0.003134132
C        0.482695186   0.751324508  -0.017676386
Br       0.542659789   0.585475110  -0.039525542
C        0.765705432   0.750982393  -0.008761509
C        0.842592166   0.670345921   0.005748359
C        0.086538406   0.921961348   0.008051538
C        0.333498817   0.921796075   0.005875161
C        0.579651944   0.914349311  -0.007230396
C        0.832829649   0.914595237  -0.004005390
O        0.494484057   0.581104843   0.170620057
O        0.367690224   0.608561909   0.184760289
H        0.460963646   0.482832099   0.202840679
K_POINTS crystal_b 
4
0.0000000000    0.0000000000    0.0000000000 17
0.0000000000    0.5000000000    0.0000000000 10
0.3333333333    0.3333333333    0.0000000000 20
0.0000000000    0.0000000000    0.0000000000 1

