 &CONTROL
                 calculation = 'nscf' ,
                      outdir = './tmp/' ,
                  pseudo_dir = '/home/deleted/pseudo_psl' ,
                      prefix = 'GBr_ip' ,
                    dipfield = .true. ,
                   verbosity = 'high',
                       nstep = 1000,
               forc_conv_thr = 4.0D-4,
               etot_conv_thr = 1.0D-5
 /
 &SYSTEM
                       ibrav = 4,
                           A = 9.88 ,
                           C = 15 ,
                         nat = 32,
                        ntyp = 2,
                     ecutwfc = 40.424239707 ,
                     ecutrho = 404.24239707 ,
                 occupations = 'tetrahedra' ,
                     degauss = 0.01 ,
				   input_dft = 'vdW-DF' ,
 /
 &ELECTRONS
            electron_maxstep = 50001,
                    conv_thr = 1.0D-6 ,
                 mixing_mode = 'local-TF' ,
                 mixing_beta = 0.5 ,
 /
ATOMIC_SPECIES
    C   12.01100  C.revpbe-n-kjpaw_psl.0.1.UPF 
   Br   79.90350  Br.revpbe-n-kjpaw_psl.0.2.UPF 
ATOMIC_POSITIONS crystal 
C        0.000327757  -0.000327757   0.000000000
C        0.249189228  -0.001621545   0.000000000
C        0.499344487  -0.000327757  -0.000000000
C        0.751221208   0.002442417   0.000000000
C       -0.002442417   0.248778792  -0.000000000
C        0.076698289   0.161600039  -0.000000000
C        0.240262437   0.239660161  -0.000000000
C        0.331945707   0.163891416   0.000000000
C        0.499397723   0.239660161   0.000000000
C        0.584901749   0.161600039  -0.000000000
C        0.751221208   0.248778792  -0.000000000
C        0.833333333   0.166666667   0.000000000
C        0.000327757   0.500655513   0.000000000
C        0.076698289   0.415098251   0.000000000
C        0.240262437   0.500602277   0.000000000
C        0.290998662   0.395499331  -0.000000000
Br       0.500000000   0.500000000   0.000000000
C        0.604500669   0.395499331  -0.000000000
C        0.760339839   0.500602277   0.000000000
C        0.838399961   0.415098251  -0.000000000
C        0.001621545   0.750810772   0.000000000
C        0.083861890   0.667723782   0.000000000
C        0.249189228   0.750810772  -0.000000000
C        0.331945707   0.668054293  -0.000000000
C        0.499397723   0.759737563  -0.000000000
C        0.604500669   0.709001338  -0.000000000
C        0.760339839   0.759737563   0.000000000
C        0.836108584   0.668054293  -0.000000000
C        0.083861890   0.916138110  -0.000000000
C        0.332276218   0.916138110   0.000000000
C        0.584901749   0.923301711   0.000000000
C        0.838399961   0.923301711   0.000000000
K_POINTS automatic 
  20 20 1   0 0 0 

