 &CONTROL
                 calculation = 'bands' ,
                      outdir = './tmp/' ,
                  pseudo_dir = '/home/deleted/pseudo_psl' ,
                      prefix = 'GI_op' ,
                   verbosity = 'high' ,
               etot_conv_thr = 1.0D-5 ,
               forc_conv_thr = 4.0D-4 ,
                       nstep = 1000 ,
                    dipfield = .true. ,
 /
 &SYSTEM
                       ibrav = 4,
                           A = 9.88 ,
                           C = 15 ,
                         nat = 34,
                        ntyp = 4,
                     ecutwfc = 40.424239707 ,
                     ecutrho = 404.24239707 ,
                 occupations = 'tetrahedra' ,
                     degauss = 0.01 ,
				   input_dft = 'vdW-DF' ,
 /
 &ELECTRONS
            electron_maxstep = 50001,
                    conv_thr = 1.0D-6 ,
                 mixing_mode = 'local-TF' ,
                 mixing_beta = 0.5 ,
 /
ATOMIC_SPECIES
    C   12.01100  C.revpbe-n-kjpaw_psl.0.1.UPF 
    I  126.90400  I.revpbe-n-kjpaw_psl.0.2.UPF 
    O   15.99940  O.revpbe-n-kjpaw_psl.0.1.UPF 
    H   1.008000  H.revpbe-kjpaw_psl.0.1.UPF
ATOMIC_POSITIONS crystal 
C       -0.003685828  -0.009048609  -0.002703961
C        0.242569776  -0.019431087  -0.002312968
C        0.499205844  -0.009055254  -0.002909136
C        0.755586939   0.006589636  -0.003598173
C        0.005651524   0.247765610  -0.002274183
C        0.082854294   0.158297234  -0.002247564
C        0.249815788   0.234909648  -0.002024518
C        0.323621520   0.142655891  -0.002079202
C        0.489682185   0.234904413  -0.002146335
C        0.580025711   0.158284032  -0.002403821
C        0.746691442   0.247747732  -0.002374274
C        0.836602211   0.168614578  -0.002740105
C       -0.001108555   0.493223772  -0.002341111
C        0.094306812   0.412535107  -0.002218036
C        0.271709873   0.490280727  -0.002507219
C        0.350189780   0.396975395  -0.002175423
C        0.551379320   0.396957779  -0.002298089
C        0.723097493   0.490230064  -0.002579611
C        0.822766361   0.412511868  -0.002295251
C       -0.015097752   0.736723025  -0.002754526
C        0.080301275   0.656032681  -0.002608739
C        0.256388672   0.736715149  -0.002796774
C        0.356065726   0.659116297  -0.003128691
C        0.527718081   0.752461522  -0.003654187
I        0.561176679   0.628394197   0.240031440
C        0.729304946   0.752436251  -0.003593168
C        0.807589471   0.659102821  -0.003059448
C        0.073493570   0.901467608  -0.002551575
C        0.332544150   0.901470690  -0.002638972
C        0.589572838   0.914419485  -0.003694859
C        0.829415642   0.914420707  -0.003479742
O        0.742063438   0.866464005   0.228327572
O        0.681723200   0.972434564   0.216732288
H        0.673824427   0.999679366   0.278733546
K_POINTS crystal_b 
4
0.0000000000    0.0000000000    0.0000000000 17
0.0000000000    0.5000000000    0.0000000000 10
0.3333333333    0.3333333333    0.0000000000 20
0.0000000000    0.0000000000    0.0000000000 1

