&BANDS
                      prefix = 'B1_op' ,
                      outdir = './tmp/' ,
                     filband = 'B1_op-bands-up' ,
                     plot_2d = .false. ,
    spin_component = 1 ,
    no_overlap = .true. ,
 /
