 &CONTROL
                 calculation = 'nscf' ,
                      outdir = './tmp/' ,
                  pseudo_dir = '/home/deleted/pseudo_psl' ,
                      prefix = 'GBr_op' ,
                   verbosity = 'high' ,
               etot_conv_thr = 1.0D-5 ,
               forc_conv_thr = 4.0D-4 ,
                       nstep = 1000 ,
                    dipfield = .true. ,
 /
 &SYSTEM
                       ibrav = 4,
                           A = 9.88 ,
                           C = 15 ,
                         nat = 33,
                        ntyp = 3,
                     ecutwfc = 40.424239707 ,
                     ecutrho = 404.24239707 ,
                 occupations = 'tetrahedra' ,
                     degauss = 0.01 ,
				   input_dft = 'vdW-DF' ,
 /
 &ELECTRONS
            electron_maxstep = 50001,
                    conv_thr = 1.0D-6 ,
                 mixing_mode = 'local-TF' ,
                 mixing_beta = 0.5 ,
 /
ATOMIC_SPECIES
    C   12.01100  C.revpbe-n-kjpaw_psl.0.1.UPF 
   Br   79.90350  Br.revpbe-n-kjpaw_psl.0.2.UPF 
    O   15.99940  O.revpbe-n-kjpaw_psl.0.1.UPF 
ATOMIC_POSITIONS crystal 
C       -0.001159402  -0.000604268  -0.003557026
C        0.245013564  -0.011032236  -0.003153537
C        0.501628137  -0.000630194  -0.003596398
C        0.757843599   0.014572754  -0.003957641
C        0.007862586   0.256020389  -0.003536408
C        0.085214586   0.166581381  -0.003293975
C        0.252194076   0.243311725  -0.003372136
C        0.326203715   0.151352873  -0.003143762
C        0.492190721   0.243305994  -0.003490985
C        0.582448467   0.166574544  -0.003472949
C        0.749246769   0.256037903  -0.003627637
C        0.839027767   0.176948628  -0.003540204
C        0.001264424   0.501312136  -0.004187102
C        0.096437656   0.420850998  -0.004104638
C        0.274062074   0.498584206  -0.004664198
C        0.352215103   0.405505888  -0.004173326
C        0.554316702   0.405466399  -0.004085801
C        0.725627168   0.498648693  -0.004395407
C        0.825541330   0.420813926  -0.004029234
C       -0.012281057   0.745176309  -0.004134169
C        0.082944665   0.664706776  -0.004174360
C        0.258514669   0.745168716  -0.004101622
C        0.358454649   0.667386290  -0.004692803
C        0.529629486   0.760544869  -0.004828715
Br       0.663404853   0.740239147   0.237343816
C        0.732123528   0.760611521  -0.005036450
C        0.810104629   0.667459160  -0.004772157
C        0.076188229   0.909925562  -0.003483102
C        0.334819523   0.909922946  -0.003518037
C        0.591858469   0.922646057  -0.004191114
C        0.831929729   0.922714814  -0.004347307
O        0.427252419   0.538809228   0.208230473
O        0.314543826   0.564400203   0.206421242
K_POINTS automatic 
  20 20 1   0 0 0 

