 &CONTROL
                 calculation = 'nscf' ,
                      outdir = './tmp/' ,
                  pseudo_dir = '/home/deleted/pseudo_psl' ,
                      prefix = 'GBr_op' ,
                   verbosity = 'high' ,
               etot_conv_thr = 1.0D-5 ,
               forc_conv_thr = 4.0D-4 ,
                       nstep = 1000 ,
                    dipfield = .true. ,
 /
 &SYSTEM
                       ibrav = 4,
                           A = 9.88 ,
                           C = 15 ,
                         nat = 33,
                        ntyp = 3,
                     ecutwfc = 40.424239707 ,
                     ecutrho = 404.24239707 ,
                 occupations = 'tetrahedra' ,
                     degauss = 0.01 ,
				   input_dft = 'vdW-DF' ,
    nspin = 2 ,
    starting_magnetization(1) = 0.5,
    starting_magnetization(2) = 0.5,
    starting_magnetization(3) = 0.5,
 /
 &ELECTRONS
            electron_maxstep = 50001,
                    conv_thr = 1.0D-6 ,
                 mixing_mode = 'local-TF' ,
                 mixing_beta = 0.5 ,
 /
ATOMIC_SPECIES
    C   12.01100  C.revpbe-n-kjpaw_psl.0.1.UPF 
   Br   79.90350  Br.revpbe-n-kjpaw_psl.0.2.UPF 
    O   15.99940  O.revpbe-n-kjpaw_psl.0.1.UPF 
ATOMIC_POSITIONS (crystal)
C       -0.006448751   0.017597166  -0.009391083
C        0.241336731   0.015950660   0.003266811
C        0.492367535   0.015383946   0.016864997
C        0.742097170   0.018435074   0.001550081
C       -0.014080150   0.261235485  -0.025645567
C        0.074858559   0.184410515  -0.011578088
C        0.241053228   0.269070076   0.002934168
C        0.323274188   0.182975885   0.003948752
C        0.489568800   0.263636267  -0.007304418
C        0.573379799   0.179130977  -0.004621272
C        0.737899592   0.263370932  -0.018547321
C        0.820714858   0.179989022  -0.018716882
C       -0.014230457   0.514092871  -0.030152543
C        0.062634930   0.425213402  -0.032810019
C        0.222787862   0.505577444  -0.017716138
C        0.306172200   0.434111790   0.009003845
C        0.577384122   0.423130745  -0.023020260
C        0.737555601   0.514306242  -0.025657482
C        0.820681046   0.430306475  -0.027127086
C       -0.009141805   0.766403578  -0.015503179
C        0.072807248   0.681978634  -0.018385433
C        0.237270884   0.764164636  -0.001806423
C        0.306179194   0.666779178   0.002548491
C        0.435200998   0.684588585   0.047039794
Br       1.043975634   0.457912842   0.202236459
C        0.753268712   0.773539651  -0.015833018
C        0.823249587   0.683077090  -0.021811446
C        0.074565733   0.932384780  -0.006459472
C        0.322890509   0.929850071   0.010497698
C        0.588766375   0.949029952   0.032093534
C        0.825891011   0.933466271  -0.006777485
O        0.544563552   0.814136321   0.086709305
O        0.442191864   0.550393481   0.053348037
K_POINTS automatic 
  20 20 1   0 0 0 

