 &CONTROL
                 calculation = 'nscf' ,
                      outdir = './tmp/' ,
                  pseudo_dir = '/home/deleted/pseudo_psl' ,
                      prefix = 'GF_ip' ,
                   verbosity = 'high' ,
               etot_conv_thr = 1.0D-5 ,
               forc_conv_thr = 4.0D-4 ,
                       nstep = 1000 ,
                    dipfield = .true. ,
 /
 &SYSTEM
                       ibrav = 4,
                           A = 9.88 ,
                           C = 15 ,
                         nat = 34,
                        ntyp = 4,
                     ecutwfc = 40.424239707 ,
                     ecutrho = 404.24239707 ,
                 occupations = 'tetrahedra' ,
                     degauss = 0.01 ,
				   input_dft = 'vdW-DF' ,
    nspin = 2 ,
    starting_magnetization(1) = 0.5,
    starting_magnetization(2) = 0.5,
    starting_magnetization(3) = 0.5,
 /
 &ELECTRONS
            electron_maxstep = 50001,
                    conv_thr = 1.0D-6 ,
                 mixing_mode = 'local-TF' ,
                 mixing_beta = 0.5 ,
 /
ATOMIC_SPECIES
    C   12.01100  C.revpbe-n-kjpaw_psl.0.1.UPF 
    F   18.99800  F.revpbe-n-kjpaw_psl.0.1.UPF 
    O   15.99940  O.revpbe-n-kjpaw_psl.0.1.UPF 
    H   1.008000  H.revpbe-kjpaw_psl.0.1.UPF
ATOMIC_POSITIONS (crystal)
C       -0.006080661  -0.016927853   0.014805110
C        0.239719615  -0.022558247   0.014282293
C        0.490831867  -0.021082844   0.012067107
C        0.745873042  -0.015825295   0.006785010
C       -0.003048912   0.233829185   0.001019092
C        0.078153267   0.148893887   0.005266913
C        0.245374671   0.229949219   0.005680614
C        0.322005004   0.141697557   0.012722257
C        0.488152274   0.232755222   0.016090903
C        0.577920615   0.149128419   0.039358792
C        0.745893013   0.234617281   0.008018512
C        0.828728805   0.152071277   0.003342694
C       -0.005991122   0.481029047  -0.000280037
C        0.083175148   0.399338109  -0.002916838
C        0.257813102   0.480963043  -0.008034895
C        0.338032150   0.393128115  -0.000438204
C        0.557378594   0.391152985   0.009792857
C        0.731495727   0.482559256   0.012585311
C        0.822813010   0.398269411   0.004105758
C       -0.009521709   0.727465702   0.014868253
C        0.075825738   0.646863102   0.004494513
C        0.243871256   0.729921024   0.000522355
C        0.330249116   0.650159126  -0.014256765
C        0.489664099   0.745335069  -0.030548059
F        0.565014468   0.679237733  -0.073199175
C        0.750946786   0.738489975   0.052468586
C        0.823413133   0.645163007   0.023133180
C        0.074196088   0.895910563   0.016795459
C        0.326052311   0.895308953   0.008738233
C        0.576089855   0.902545928  -0.004307502
C        0.827746553   0.904314071   0.020861684
O        0.641135077   0.685471535   0.105831001
O        0.596571576   1.154119701   0.138909239
H        0.491823083   1.099722906   0.164823523
K_POINTS automatic 
  20 20 1   0 0 0 

