 &CONTROL
                 calculation = 'nscf' ,
                      outdir = './tmp/' ,
                  pseudo_dir = '/home/deleted/pseudo_psl' ,
                      prefix = 'GBr_ip' ,
                   verbosity = 'high' ,
               etot_conv_thr = 1.0D-5 ,
               forc_conv_thr = 4.0D-4 ,
                       nstep = 1000 ,
                    dipfield = .true. ,
 /
 &SYSTEM
                       ibrav = 4,
                           A = 9.88 ,
                           C = 15 ,
                         nat = 34,
                        ntyp = 4,
                     ecutwfc = 40.424239707 ,
                     ecutrho = 404.24239707 ,
                 occupations = 'tetrahedra' ,
                     degauss = 0.01 ,
				   input_dft = 'vdW-DF' ,
 /
 &ELECTRONS
            electron_maxstep = 50001,
                    conv_thr = 1.0D-6 ,
                 mixing_mode = 'local-TF' ,
                 mixing_beta = 0.5 ,
 /
ATOMIC_SPECIES
    C   12.01100  C.revpbe-n-kjpaw_psl.0.1.UPF 
   Br   79.90350  Br.revpbe-n-kjpaw_psl.0.2.UPF 
    O   15.99940  O.revpbe-n-kjpaw_psl.0.1.UPF 
    H   1.008000  H.revpbe-kjpaw_psl.0.1.UPF
ATOMIC_POSITIONS crystal 
C        0.002848587   0.011797744   0.002444246
C        0.255360531   0.018480476   0.004714422
C        0.501122807   0.011521858   0.000839171
C        0.749131465   0.006267573  -0.004650700
C       -0.000990608   0.258762863   0.006481730
C        0.084840445   0.179022264   0.001397819
C        0.252623418   0.266212592  -0.006833348
C        0.338183779   0.184282724  -0.004703171
C        0.505700091   0.266048517  -0.005052755
C        0.586373283   0.178728787   0.002105094
C        0.751921205   0.258629596   0.007709084
C        0.832111941   0.172041772   0.005005551
C        0.001945724   0.511284722   0.017424723
C        0.079677818   0.425451404   0.010661331
C        0.242401365   0.510524286  -0.001814097
C        0.319117681   0.429518597  -0.015745308
C        0.602250794   0.429712912  -0.010349383
C        0.759779206   0.510378652   0.004130250
C        0.838019667   0.425215547   0.013689862
C        0.008114565   0.765398154   0.013569993
C        0.086024526   0.679371822   0.017179109
C        0.249514436   0.765196924   0.009895025
C        0.327192018   0.680278013  -0.002447742
C        0.484772633   0.761326692  -0.016928986
Br       0.544407024   0.595369188  -0.039624934
C        0.767988836   0.761014502  -0.010589399
C        0.844728849   0.680290567   0.004089089
C        0.088582755   0.931965314   0.007664226
C        0.335579773   0.931832925   0.005825581
C        0.581680099   0.924319400  -0.007341554
C        0.834874668   0.924535959  -0.004784538
O        0.521134380   0.584861852   0.171703422
O        0.420586947   0.647306594   0.186089601
H        0.476653790   0.493044005   0.210950493
K_POINTS automatic 
  20 20 1   0 0 0 

