 &CONTROL
                 calculation = 'scf' ,
                      outdir = './tmp/' ,
                  pseudo_dir = '/home/deleted/pseudo_psl' ,
                      prefix = 'GF_op' ,
                   verbosity = 'high' ,
               etot_conv_thr = 1.0D-5 ,
               forc_conv_thr = 4.0D-4 ,
                       nstep = 1000 ,
                    dipfield = .true. ,
 /
 &SYSTEM
                       ibrav = 4,
                           A = 9.88 ,
                           C = 15 ,
                         nat = 34,
                        ntyp = 4,
                     ecutwfc = 40.424239707 ,
                     ecutrho = 404.24239707 ,
                 occupations = 'smearing' ,
                     degauss = 0.01 ,
				   input_dft = 'vdW-DF' ,
    nspin = 2 ,
    starting_magnetization(1) = 0.5,
    starting_magnetization(2) = 0.5,
    starting_magnetization(3) = 0.5,
 /
 &ELECTRONS
            electron_maxstep = 50001,
                    conv_thr = 1.0D-6 ,
                 mixing_mode = 'local-TF' ,
                 mixing_beta = 0.5 ,
 /
ATOMIC_SPECIES
    C   12.01100  C.revpbe-n-kjpaw_psl.0.1.UPF 
    F   18.99800  F.revpbe-n-kjpaw_psl.0.1.UPF 
    O   15.99940  O.revpbe-n-kjpaw_psl.0.1.UPF 
    H   1.008000  H.revpbe-kjpaw_psl.0.1.UPF
ATOMIC_POSITIONS (crystal)
C        0.007878015  -0.004105817  -0.000880539
C        0.254411024  -0.008434997  -0.009346408
C        0.505664622  -0.002793075  -0.010156410
C        0.758523691  -0.000565688   0.003479244
C        0.009616789   0.247212072  -0.002399872
C        0.091270618   0.162675096  -0.005036336
C        0.258945820   0.243673723  -0.007329874
C        0.335953560   0.154609317  -0.008366575
C        0.502091193   0.244304438  -0.006698338
C        0.588691298   0.163422460  -0.006058166
C        0.754940734   0.247142940  -0.003915013
C        0.840865440   0.164165302  -0.000712907
C        0.006314852   0.495219751  -0.005322253
C        0.095731332   0.412697802  -0.005990920
C        0.269281138   0.493975273  -0.010663440
C        0.350695166   0.406214367  -0.007549079
C        0.572917439   0.406609436  -0.002788521
C        0.742327292   0.494355434   0.003244194
C        0.834505412   0.412757705  -0.002187518
C        0.003848358   0.743491742  -0.003599249
C        0.088402195   0.660241747  -0.009080810
C        0.256034859   0.743364025  -0.013846684
C        0.344220468   0.662424605  -0.017125270
C        0.503735113   0.756677333  -0.022661155
F        0.638120273   0.685085635   0.084085346
C        0.772748007   0.755946323   0.032943307
C        0.837444967   0.662827185   0.010684632
C        0.087639281   0.909451040  -0.004597724
C        0.339262676   0.909482445  -0.012690755
C        0.591863522   0.915922774  -0.009591238
C        0.842500984   0.915971495   0.013087843
O        0.314901004   0.761925588   0.195455181
O        0.474083308   0.841316130   0.206355761
H        0.506273739   0.764376127   0.190817616
K_POINTS automatic 
  16 16 1   0 0 0 

