 &CONTROL
                 calculation = 'scf' ,
                      outdir = './tmp/' ,
                  pseudo_dir = '/home/deleted/pseudo_psl' ,
                      prefix = 'GI_op' ,
                   verbosity = 'high' ,
               etot_conv_thr = 1.0D-5 ,
               forc_conv_thr = 4.0D-4 ,
                       nstep = 1000 ,
                    dipfield = .true. ,
 /
 &SYSTEM
                       ibrav = 4,
                           A = 9.88 ,
                           C = 15 ,
                         nat = 33,
                        ntyp = 3,
                     ecutwfc = 40.424239707 ,
                     ecutrho = 404.24239707 ,
                 occupations = 'smearing' ,
                     degauss = 0.01 ,
				   input_dft = 'vdW-DF' ,
 /
 &ELECTRONS
            electron_maxstep = 50001,
                    conv_thr = 1.0D-6 ,
                 mixing_mode = 'local-TF' ,
                 mixing_beta = 0.5 ,
 /
ATOMIC_SPECIES
    C   12.01100  C.revpbe-n-kjpaw_psl.0.1.UPF 
    I  126.90400  I.revpbe-n-kjpaw_psl.0.2.UPF 
    O   15.99940  O.revpbe-n-kjpaw_psl.0.1.UPF 
ATOMIC_POSITIONS crystal 
C        0.006473844   0.001936575  -0.006335721
C        0.252792772  -0.008349478  -0.006395125
C        0.509304754   0.001990365  -0.007188439
C        0.765419700   0.017183436  -0.007073517
C        0.015530657   0.258605249  -0.006225942
C        0.092855216   0.169194925  -0.006251755
C        0.259828810   0.245959933  -0.006377601
C        0.333929181   0.154000628  -0.006245390
C        0.499920973   0.245919716  -0.006329118
C        0.590159660   0.169184208  -0.006597226
C        0.756897338   0.258611451  -0.006438826
C        0.846643147   0.179496895  -0.006505653
C        0.008953028   0.503998848  -0.006363733
C        0.104041171   0.423407505  -0.006326398
C        0.281536597   0.501219076  -0.006818452
C        0.359578016   0.408010655  -0.006725317
C        0.562230300   0.408034841  -0.006521438
C        0.733484951   0.501196713  -0.006639389
C        0.833254513   0.423437948  -0.006348393
C       -0.004618447   0.747807498  -0.006601742
C        0.090634571   0.667295264  -0.006638633
C        0.266219070   0.747802484  -0.007004242
C        0.365943233   0.670041869  -0.007387967
C        0.537162842   0.763132629  -0.007720368
I        0.515951169   0.575771708   0.241520361
C        0.739645869   0.763113156  -0.007092797
C        0.817839801   0.670016522  -0.006858442
C        0.083857472   0.912555077  -0.006363883
C        0.342547940   0.912630317  -0.006929776
C        0.599507999   0.925350493  -0.007697216
C        0.839493748   0.925195038  -0.006796372
O        0.409972079   0.826972486   0.206174485
O        0.532171458   0.815039118   0.202266285
K_POINTS automatic 
  16 16 1   0 0 0 

