 &CONTROL
                 calculation = 'bands' ,
                      outdir = './tmp/' ,
                  pseudo_dir = '/home/deleted/pseudo_psl' ,
                      prefix = 'PG_tlh' ,
                    dipfield = .true. ,
                   verbosity = 'high',
                       nstep = 1000,
               forc_conv_thr = 4.0D-4,
               etot_conv_thr = 1.0D-5
 /
 &SYSTEM
                       ibrav = 4,
                           A = 9.88 ,
                           C = 15 ,
                         nat = 34,
                        ntyp = 2,
                     ecutwfc = 40.424239707 ,
                     ecutrho = 404.24239707 ,
                 occupations = 'tetrahedra' ,
                     degauss = 0.01 ,
				   input_dft = 'vdW-DF' ,
    nspin = 2 ,
    starting_magnetization(1) = 0.5,
	starting_magnetization(2) = 0.5,
 /
 &ELECTRONS
            electron_maxstep = 50001,
                    conv_thr = 1.0D-6 ,
                 mixing_mode = 'local-TF' ,
                 mixing_beta = 0.5 ,
 /
ATOMIC_SPECIES
    C   12.01100  C.revpbe-n-kjpaw_psl.0.1.UPF 
    O   15.99940  O.revpbe-n-kjpaw_psl.0.1.UPF 
ATOMIC_POSITIONS crystal 
C       -0.000031995  -0.000001328  -0.006064112
C        0.250031805  -0.000001121  -0.006064043
C        0.500006760  -0.000024877  -0.006301122
C        0.749967558  -0.000025050  -0.006301329
C        0.000038796   0.250019539  -0.006193071
C        0.083364498   0.166690910  -0.006300981
C        0.250031381   0.250061472  -0.006594774
C        0.333325702   0.166691196  -0.006300816
C        0.499980640   0.250019194  -0.006192666
C        0.583302427   0.166667671  -0.006064275
C        0.750009639   0.250020220  -0.005943122
C        0.833365847   0.166667369  -0.006064573
C        0.000053597   0.500001321  -0.005926428
C        0.083420446   0.416698065  -0.006335526
C        0.250038215   0.500054418  -0.006980762
C        0.333331266   0.416663047  -0.007025352
C        0.500016237   0.500053846  -0.006980389
C        0.583277942   0.416698871  -0.006334948
C        0.749947243   0.500000748  -0.005925963
C        0.833341541   0.416682749  -0.005813490
C       -0.000007957   0.749983322  -0.005813352
C        0.083385172   0.666665129  -0.005926314
C        0.250055666   0.749967870  -0.006335349
C        0.333316899   0.666612117  -0.006980771
C        0.500001154   0.750002822  -0.007025573
C        0.583295738   0.666612627  -0.006980551
C        0.749911944   0.749967126  -0.006335156
C        0.833279642   0.666665707  -0.005926008
C        0.083322518   0.916646356  -0.005942726
C        0.333352482   0.916647248  -0.006192799
C        0.583303239   0.916605409  -0.006595188
C        0.833294752   0.916647457  -0.006192924
O        0.453513341   0.657025958   0.200978196
O        0.379822523   0.509645930   0.200976256
K_POINTS crystal_b 
4
0.0000000000    0.0000000000    0.0000000000 17
0.0000000000    0.5000000000    0.0000000000 10
0.3333333333    0.3333333333    0.0000000000 20
0.0000000000    0.0000000000    0.0000000000 1

