 &CONTROL
                 calculation = 'relax' ,
                      outdir = './tmp/' ,
                  pseudo_dir = '/home/deleted/pseudo_psl' ,
                      prefix = 'GF_op' ,
                   verbosity = 'high' ,
               etot_conv_thr = 1.0D-5 ,
               forc_conv_thr = 4.0D-4 ,
                       nstep = 1000 ,
                    dipfield = .true. ,
 /
 &SYSTEM
                       ibrav = 4,
                           A = 9.88 ,
                           C = 15 ,
                         nat = 33,
                        ntyp = 3,
                     ecutwfc = 40.424239707 ,
                     ecutrho = 404.24239707 ,
                 occupations = 'smearing' ,
                     degauss = 0.01 ,
				   input_dft = 'vdW-DF' ,
 /
 &ELECTRONS
            electron_maxstep = 50001,
                    conv_thr = 1.0D-6 ,
                 mixing_mode = 'local-TF' ,
                 mixing_beta = 0.5 ,
 /
 &IONS
                ion_dynamics = 'bfgs' ,
 /
ATOMIC_SPECIES
    C   12.01100  C.revpbe-n-kjpaw_psl.0.1.UPF 
    F   18.99800  F.revpbe-n-kjpaw_psl.0.1.UPF 
    O   15.99940  O.revpbe-n-kjpaw_psl.0.1.UPF 
ATOMIC_POSITIONS crystal 
C       -0.002210658   0.004736804  -0.003942139
C        0.243018031  -0.005390584  -0.007109562
C        0.499371574   0.004640829  -0.008958181
C        0.756219440   0.016160824  -0.004563749
C        0.005491753   0.259558071  -0.008720846
C        0.084367072   0.171811070  -0.007948168
C        0.251167253   0.248808459  -0.008656400
C        0.325310303   0.158507973  -0.008213092
C        0.492004884   0.250293692  -0.009094920
C        0.581358831   0.171941062  -0.009011625
C        0.748545391   0.259444260  -0.010084581
C        0.838083382   0.180615764  -0.008420685
C        0.000050913   0.505218975  -0.010450619
C        0.094651187   0.425489163  -0.010399100
C        0.269596145   0.504120212  -0.010890836
C        0.351448751   0.412589412  -0.006994047
C        0.554991677   0.412239024  -0.009580516
C        0.728917288   0.504522302  -0.008738515
C        0.826326133   0.424231355  -0.010532438
C       -0.011610325   0.749020372  -0.007101438
C        0.081956479   0.669559174  -0.009521012
C        0.254542663   0.750532598  -0.008968890
C        0.351295611   0.671970075  -0.009459836
C        0.519884623   0.764407618  -0.010924358
F        0.694053809   0.731481262   0.110765860
C        0.733576278   0.761457096   0.018442688
C        0.817114650   0.669514497  -0.004861263
C        0.076588097   0.915757049  -0.004803123
C        0.332625112   0.915583219  -0.008525384
C        0.587941497   0.925682009  -0.008355122
C        0.832946675   0.930264901   0.001922321
O        0.382212146   0.429989077   0.153034520
O        0.364829995   0.538575723   0.183998392
K_POINTS automatic 
  4 4 1   0 0 0 

