 &CONTROL
                 calculation = 'scf' ,
                      outdir = './tmp/' ,
                  pseudo_dir = '/home/deleted/pseudo_psl' ,
                      prefix = 'GI_op' ,
                   verbosity = 'high' ,
               etot_conv_thr = 1.0D-5 ,
               forc_conv_thr = 4.0D-4 ,
                       nstep = 1000 ,
                    dipfield = .true. ,
 /
 &SYSTEM
                       ibrav = 4,
                           A = 9.88 ,
                           C = 15 ,
                         nat = 34,
                        ntyp = 4,
                     ecutwfc = 40.424239707 ,
                     ecutrho = 404.24239707 ,
                 occupations = 'smearing' ,
                     degauss = 0.01 ,
				   input_dft = 'vdW-DF' ,
    nspin = 2 ,
    starting_magnetization(1) = 0.5,
    starting_magnetization(2) = 0.5,
    starting_magnetization(3) = 0.5,
 /
 &ELECTRONS
            electron_maxstep = 50001,
                    conv_thr = 1.0D-6 ,
                 mixing_mode = 'local-TF' ,
                 mixing_beta = 0.5 ,
 /
ATOMIC_SPECIES
    C   12.01100  C.revpbe-n-kjpaw_psl.0.1.UPF 
    I  126.90400  I.revpbe-n-kjpaw_psl.0.2.UPF 
    O   15.99940  O.revpbe-n-kjpaw_psl.0.1.UPF 
    H   1.008000  H.revpbe-kjpaw_psl.0.1.UPF
ATOMIC_POSITIONS (crystal)
C       -0.001976970  -0.003973722  -0.001563620
C        0.244244806  -0.014339397  -0.000453126
C        0.500801799  -0.003989998  -0.001045839
C        0.756863226   0.010921032  -0.002525202
C        0.006769073   0.252460396  -0.001874284
C        0.084302350   0.163140906  -0.001203196
C        0.251311241   0.239987848  -0.000737783
C        0.325593928   0.148348068  -0.000182088
C        0.491508152   0.239990463  -0.000504304
C        0.581667421   0.163126969  -0.000792443
C        0.748522018   0.252457435  -0.001624391
C        0.838191800   0.173555952  -0.002129412
C        0.000244670   0.497687254  -0.002408094
C        0.095263708   0.417332594  -0.002279453
C        0.272841859   0.495334093  -0.002620435
C        0.351141377   0.402304512  -0.001548824
C        0.553970391   0.402307451  -0.001457824
C        0.725285976   0.495337139  -0.002596054
C        0.824889146   0.417344142  -0.002186232
C       -0.012895796   0.741809804  -0.002199708
C        0.082110631   0.661417557  -0.002264119
C        0.257489428   0.741787729  -0.001984541
C        0.357151434   0.663836017  -0.002728695
C        0.528499803   0.756933524  -0.002466341
I        0.526320665   0.555261238   0.222354605
C        0.731174033   0.756944919  -0.002689252
C        0.809455641   0.663849579  -0.002898870
C        0.075558837   0.906696664  -0.001272184
C        0.333937152   0.906682942  -0.000921457
C        0.590961959   0.919201902  -0.002092595
C        0.831036130   0.919236165  -0.002550731
O        0.747614571   1.032318528   0.202184663
O        0.812732439   0.943734072   0.220404406
H        0.722381358   0.831400739   0.224250307
K_POINTS automatic 
  16 16 1   0 0 0 

