 &CONTROL
                 calculation = 'bands' ,
                      outdir = './tmp/' ,
                  pseudo_dir = '/home/deleted/pseudo_psl' ,
                      prefix = 'GF_op' ,
                   verbosity = 'high' ,
               etot_conv_thr = 1.0D-5 ,
               forc_conv_thr = 4.0D-4 ,
                       nstep = 1000 ,
                    dipfield = .true. ,
 /
 &SYSTEM
                       ibrav = 4,
                           A = 9.88 ,
                           C = 15 ,
                         nat = 33,
                        ntyp = 3,
                     ecutwfc = 40.424239707 ,
                     ecutrho = 404.24239707 ,
                 occupations = 'tetrahedra' ,
                     degauss = 0.01 ,
				   input_dft = 'vdW-DF' ,
 /
 &ELECTRONS
            electron_maxstep = 50001,
                    conv_thr = 1.0D-6 ,
                 mixing_mode = 'local-TF' ,
                 mixing_beta = 0.5 ,
 /
ATOMIC_SPECIES
    C   12.01100  C.revpbe-n-kjpaw_psl.0.1.UPF 
    F   18.99800  F.revpbe-n-kjpaw_psl.0.1.UPF 
    O   15.99940  O.revpbe-n-kjpaw_psl.0.1.UPF 
ATOMIC_POSITIONS crystal 
C        0.001901288  -0.000164529   0.005359037
C        0.246014562  -0.007970877   0.007154452
C        0.497934183  -0.000164529   0.005359037
C        0.752619686   0.005239373   0.001799955
C        0.002891332   0.250446046   0.005222743
C        0.084792713   0.165964775   0.006035443
C        0.251612191   0.244606816   0.006795033
C        0.327432402   0.154864805   0.007392634
C        0.492994626   0.244606816   0.006795033
C        0.581172062   0.165964775   0.006035443
C        0.747554714   0.250446046   0.005222743
C        0.834612881   0.169225764   0.004185484
C       -0.001418548   0.497162903   0.005259017
C        0.089132521   0.415668997   0.005180175
C        0.263357459   0.495121951   0.004589951
C        0.345240628   0.406528317   0.005644513
C        0.561287688   0.406528317   0.005644513
C        0.731764493   0.495121951   0.004589951
C        0.826536475   0.415668997   0.005180175
C       -0.004206635   0.744859823   0.005605703
C        0.081092793   0.662185587   0.005835389
C        0.249066458   0.744859823   0.005605703
C        0.336978606   0.663080873   0.003491053
C        0.495984448   0.762363429   0.001284988
F        0.589313321   0.678626644  -0.012416977
C        0.766378982   0.762363429   0.001284988
C        0.826102266   0.663080873   0.003491053
C        0.079374093   0.910876151   0.006340726
C        0.331502057   0.910876151   0.006340726
C        0.586186064   0.922079519   0.001965495
C        0.835893454   0.922079519   0.001965495
O        0.668056808   0.705650233   0.181811233
O        0.537593423   0.705650233   0.181811233
K_POINTS crystal_b 
4
0.0000000000    0.0000000000    0.0000000000 17
0.0000000000    0.5000000000    0.0000000000 10
0.3333333333    0.3333333333    0.0000000000 20
0.0000000000    0.0000000000    0.0000000000 1

