 &CONTROL
                 calculation = 'bands' ,
                      outdir = './tmp/' ,
                  pseudo_dir = '/home/deleted/pseudo_psl' ,
                      prefix = 'GF_ip' ,
                   verbosity = 'high' ,
               etot_conv_thr = 1.0D-5 ,
               forc_conv_thr = 4.0D-4 ,
                       nstep = 1000 ,
                    dipfield = .true. ,
 /
 &SYSTEM
                       ibrav = 4,
                           A = 9.88 ,
                           C = 15 ,
                         nat = 32,
                        ntyp = 3,
                     ecutwfc = 40.424239707 ,
                     ecutrho = 404.24239707 ,
                 occupations = 'tetrahedra' ,
                     degauss = 0.01 ,
				   input_dft = 'vdW-DF' ,
    nspin = 2 ,
    starting_magnetization(1) = 0.5,
    starting_magnetization(2) = 0.5,
    starting_magnetization(3) = 0.5,
 /
 &ELECTRONS
            electron_maxstep = 50001,
                    conv_thr = 1.0D-6 ,
                 mixing_mode = 'local-TF' ,
                 mixing_beta = 0.5 ,
 /
ATOMIC_SPECIES
    C   12.01100  C.revpbe-n-kjpaw_psl.0.1.UPF 
    F   18.99800  F.revpbe-n-kjpaw_psl.0.1.UPF 
    O   15.99940  O.revpbe-n-kjpaw_psl.0.1.UPF 
ATOMIC_POSITIONS (crystal)
C       -0.001222542  -0.004151172   0.007082757
C        0.243394251  -0.013211499   0.005722416
C        0.497071370  -0.004151172   0.007082757
C        0.751714679   0.003429358   0.009811652
C        0.002252222   0.248250596   0.006911783
C        0.083104544   0.162316929   0.006207251
C        0.249663712   0.240413521   0.005380582
C        0.324911712   0.149823424   0.004999358
C        0.490749809   0.240413521   0.005380582
C        0.579212384   0.162316929   0.006207251
C        0.745998373   0.248250596   0.006911783
C        0.833936096   0.167872192   0.008013651
C       -0.002682362   0.494635278   0.007159062
C        0.089782317   0.413462520   0.006977004
C        0.266029252   0.493613782   0.007595694
C        0.347498424   0.402651228   0.006464503
C        0.555152802   0.402651228   0.006464503
C        0.727584531   0.493613782   0.007595694
C        0.823680202   0.413462520   0.006977004
C       -0.009147642   0.740844718   0.007468284
C        0.079822669   0.659645339   0.007090541
C        0.249992359   0.740844718   0.007468284
C        0.340636484   0.661650308   0.009244922
C        0.506507999   0.755046388   0.011514867
F        0.661754425   0.823508850  -0.145522815
C        0.748538388   0.755046388   0.011514867
C        0.821013823   0.661650308   0.009244922
C        0.076365800   0.906844836   0.006633794
C        0.330479034   0.906844836   0.006633794
C        0.585215503   0.918677924   0.009460626
C        0.833462420   0.918677924   0.009460626
O        0.589944205   0.679888411   0.020842003
K_POINTS automatic 
  20 20 1   0 0 0 

