 &CONTROL
                 calculation = 'scf' ,
                      outdir = './tmp/' ,
                  pseudo_dir = '/home/deleted/pseudo_psl' ,
                      prefix = 'GBr_ip' ,
                   verbosity = 'high' ,
               etot_conv_thr = 1.0D-5 ,
               forc_conv_thr = 4.0D-4 ,
                       nstep = 1000 ,
                    dipfield = .true. ,
 /
 &SYSTEM
                       ibrav = 4,
                           A = 9.88 ,
                           C = 15 ,
                         nat = 33,
                        ntyp = 3,
                     ecutwfc = 40.424239707 ,
                     ecutrho = 404.24239707 ,
                 occupations = 'smearing' ,
                     degauss = 0.01 ,
				   input_dft = 'vdW-DF' ,
    nspin = 2 ,
    starting_magnetization(1) = 0.5,
    starting_magnetization(2) = 0.5,
    starting_magnetization(3) = 0.5,
 /
 &ELECTRONS
            electron_maxstep = 50001,
                    conv_thr = 1.0D-6 ,
                 mixing_mode = 'local-TF' ,
                 mixing_beta = 0.5 ,
 /
ATOMIC_SPECIES
    C   12.01100  C.revpbe-n-kjpaw_psl.0.1.UPF 
   Br   79.90350  Br.revpbe-n-kjpaw_psl.0.2.UPF 
    O   15.99940  O.revpbe-n-kjpaw_psl.0.1.UPF 
ATOMIC_POSITIONS (crystal)
C        0.002054222   0.002456837   0.002504885
C        0.254570451   0.009140902   0.006067014
C        0.500402617   0.002456837   0.002504885
C        0.748623540  -0.002752920  -0.004259760
C       -0.001749672   0.249447484   0.008176896
C        0.083936685   0.169590307   0.002505645
C        0.251523372   0.256491025  -0.005847615
C        0.337400420   0.174800841  -0.004252633
C        0.504967654   0.256491025  -0.005847615
C        0.585653621   0.169590307   0.002505645
C        0.751197156   0.249447484   0.008176896
C        0.831459024   0.162918049   0.006060041
C        0.001008396   0.502016792   0.019341995
C        0.078937542   0.416158370   0.013485847
C        0.241733791   0.501012000   0.001047010
C        0.317912870   0.419588936  -0.014437198
C        0.601676064   0.419588936  -0.014437198
C        0.759278209   0.501012000   0.001047010
C        0.837220827   0.416158370   0.013485847
C        0.007094333   0.755928986   0.013485978
C        0.085047147   0.670094295   0.019341523
C        0.248834654   0.755928986   0.013485978
C        0.326759242   0.671041380   0.001043856
C        0.484358030   0.752428371  -0.014449225
Br       0.542987240   0.585974481  -0.040563173
C        0.768070341   0.752428371  -0.014449225
C        0.844282137   0.671041380   0.001043856
C        0.087767360   0.922625732   0.008180168
C        0.334858371   0.922625732   0.008180168
C        0.581059158   0.915526639  -0.005855185
C        0.834467480   0.915526639  -0.005855185
O        0.579709674   0.659419348   0.189268920
O        0.506206683   0.512413368   0.189313951
K_POINTS automatic 
  16 16 1   0 0 0 

