 &CONTROL
                 calculation = 'scf' ,
                      outdir = './tmp/' ,
                  pseudo_dir = '/home/deleted/pseudo_psl' ,
                      prefix = 'GCl_op' ,
                   verbosity = 'high' ,
               etot_conv_thr = 1.0D-5 ,
               forc_conv_thr = 4.0D-4 ,
                       nstep = 1000 ,
                    dipfield = .true. ,
 /
 &SYSTEM
                       ibrav = 4,
                           A = 9.88 ,
                           C = 15 ,
                         nat = 34,
                        ntyp = 4,
                     ecutwfc = 40.424239707 ,
                     ecutrho = 404.24239707 ,
                 occupations = 'smearing' ,
                     degauss = 0.01 ,
				   input_dft = 'vdW-DF' ,
    nspin = 2 ,
    starting_magnetization(1) = 0.5,
    starting_magnetization(2) = 0.5,
    starting_magnetization(3) = 0.5,
 /
 &ELECTRONS
            electron_maxstep = 50001,
                    conv_thr = 1.0D-6 ,
                 mixing_mode = 'local-TF' ,
                 mixing_beta = 0.5 ,
 /
ATOMIC_SPECIES
    C   12.01100  C.revpbe-n-kjpaw_psl.0.1.UPF 
   Cl   35.45200  Cl.revpbe-n-kjpaw_psl.0.3.0.UPF 
    O   15.99940  O.revpbe-n-kjpaw_psl.0.1.UPF 
    H   1.008000  H.revpbe-kjpaw_psl.0.1.UPF
ATOMIC_POSITIONS (crystal)
C       -0.008209752  -0.018309296  -0.006377613
C        0.237146473  -0.024865657  -0.014313522
C        0.489090284  -0.018194859  -0.006089070
C        0.742915966  -0.013346791   0.011480177
C       -0.007341936   0.231944388  -0.005400135
C        0.074988740   0.148104310  -0.009669931
C        0.242334339   0.227892958  -0.013372820
C        0.318771611   0.138364769  -0.015758536
C        0.484741376   0.227913109  -0.013443501
C        0.572329272   0.148169817  -0.009709847
C        0.738430848   0.231953139  -0.005511200
C        0.824678304   0.150230632  -0.000363745
C       -0.010768974   0.479233567  -0.005748516
C        0.078790228   0.397475298  -0.005362787
C        0.252369137   0.478175246  -0.002773436
C        0.334731490   0.390056793  -0.008741389
C        0.554536264   0.390044504  -0.008835418
C        0.725008720   0.478145511  -0.002847451
C        0.817865528   0.397416105  -0.005412651
C       -0.013019369   0.727231252  -0.008080075
C        0.071741405   0.644265654  -0.009948185
C        0.239482317   0.727287040  -0.007969232
C        0.325751803   0.646113712   0.004264041
C        0.483811222   0.742901032   0.023954029
Cl       0.582127877   0.664754232   0.087070362
C        0.758125211   0.742810236   0.023552778
C        0.819560162   0.646062562   0.004093854
C        0.070283781   0.893585627  -0.010406080
C        0.322487383   0.893618742  -0.010231950
C        0.575090063   0.904071977   0.011512146
C        0.828002601   0.903941334   0.011102263
O        0.828963780   1.179250380   0.205597622
O        0.834432560   1.041603099   0.222067293
H        0.916666740   1.074446494   0.267424171
K_POINTS automatic 
  16 16 1   0 0 0 

