 &CONTROL
                 calculation = 'bands' ,
                      outdir = './tmp/' ,
                  pseudo_dir = '/home/deleted/pseudo_psl' ,
                      prefix = 'GI_ip' ,
                   verbosity = 'high' ,
               etot_conv_thr = 1.0D-5 ,
               forc_conv_thr = 4.0D-4 ,
                       nstep = 1000 ,
                    dipfield = .true. ,
 /
 &SYSTEM
                       ibrav = 4,
                           A = 9.88 ,
                           C = 15 ,
                         nat = 34,
                        ntyp = 4,
                     ecutwfc = 40.424239707 ,
                     ecutrho = 404.24239707 ,
                 occupations = 'tetrahedra' ,
                     degauss = 0.01 ,
				   input_dft = 'vdW-DF' ,
    nspin = 2 ,
    starting_magnetization(1) = 0.5,
    starting_magnetization(2) = 0.5,
    starting_magnetization(3) = 0.5,
 /
 &ELECTRONS
            electron_maxstep = 50001,
                    conv_thr = 1.0D-6 ,
                 mixing_mode = 'local-TF' ,
                 mixing_beta = 0.5 ,
 /
ATOMIC_SPECIES
    C   12.01100  C.revpbe-n-kjpaw_psl.0.1.UPF 
    I  126.90400  I.revpbe-n-kjpaw_psl.0.2.UPF 
    O   15.99940  O.revpbe-n-kjpaw_psl.0.1.UPF 
    H   1.008000  H.revpbe-kjpaw_psl.0.1.UPF
ATOMIC_POSITIONS (crystal)
C        0.002774390   0.015134186   0.004143454
C        0.255436180   0.022294686   0.007692598
C        0.500961698   0.014930036   0.003612188
C        0.749055077   0.009604233  -0.005875681
C       -0.001432222   0.261719420   0.010258207
C        0.084535722   0.182158412   0.003516011
C        0.251376599   0.268888019  -0.007750830
C        0.337970822   0.187479453  -0.005575539
C        0.506072388   0.268776897  -0.006580897
C        0.586208657   0.181951496   0.004281353
C        0.751687344   0.261599886   0.011273622
C        0.831713584   0.174828984   0.007392157
C        0.001634829   0.514507768   0.025359750
C        0.079219652   0.428443346   0.016838705
C        0.240691549   0.513379562   0.000520501
C        0.316051885   0.431724073  -0.018222588
C        0.603877775   0.431765824  -0.014922121
C        0.760636937   0.513265891   0.004267877
C        0.837645515   0.428245988   0.018870429
C        0.007913777   0.768857309   0.019014438
C        0.085654121   0.682615354   0.025551751
C        0.249369351   0.768621823   0.017101844
C        0.325816809   0.683667036   0.000655355
C        0.483081485   0.765202770  -0.017713064
I        0.544230137   0.598591305  -0.060741623
C        0.770634747   0.765265730  -0.015178214
C        0.845865520   0.683785209   0.004275740
C        0.088552435   0.935460155   0.011386368
C        0.335394479   0.935394225   0.010580059
C        0.581131464   0.928325681  -0.007819854
C        0.835864711   0.928361579  -0.006865499
O        0.564450346   0.631236387   0.134242205
O        0.419738707   0.577355401   0.181163200
H        0.447047588   0.661904220   0.224126089
K_POINTS automatic 
  20 20 1   0 0 0 

