 &CONTROL
                 calculation = 'bands' ,
                      outdir = './tmp/' ,
                  pseudo_dir = '/home/deleted/pseudo_psl' ,
                      prefix = 'GF_op' ,
                   verbosity = 'high' ,
               etot_conv_thr = 1.0D-5 ,
               forc_conv_thr = 4.0D-4 ,
                       nstep = 1000 ,
                    dipfield = .true. ,
 /
 &SYSTEM
                       ibrav = 4,
                           A = 9.88 ,
                           C = 15 ,
                         nat = 33,
                        ntyp = 3,
                     ecutwfc = 40.424239707 ,
                     ecutrho = 404.24239707 ,
                 occupations = 'tetrahedra' ,
                     degauss = 0.01 ,
				   input_dft = 'vdW-DF' ,
    nspin = 2 ,
    starting_magnetization(1) = 0.5,
    starting_magnetization(2) = 0.5,
    starting_magnetization(3) = 0.5,
 /
 &ELECTRONS
            electron_maxstep = 50001,
                    conv_thr = 1.0D-6 ,
                 mixing_mode = 'local-TF' ,
                 mixing_beta = 0.5 ,
 /
ATOMIC_SPECIES
    C   12.01100  C.revpbe-n-kjpaw_psl.0.1.UPF 
    F   18.99800  F.revpbe-n-kjpaw_psl.0.1.UPF 
    O   15.99940  O.revpbe-n-kjpaw_psl.0.1.UPF 
ATOMIC_POSITIONS (crystal)
C        0.002517116   0.001031763  -0.000502315
C        0.246416870  -0.007198138  -0.002998553
C        0.498521016   0.000996480  -0.001982356
C        0.753347148   0.006769752   0.003999155
C        0.003579631   0.251787353   0.000635892
C        0.085575342   0.167263037  -0.000661123
C        0.252377248   0.245619876  -0.001675977
C        0.327783616   0.155574183  -0.002713089
C        0.493255752   0.245610635  -0.002236012
C        0.581689641   0.167233495  -0.001633974
C        0.748201858   0.251763602   0.000044242
C        0.835453598   0.170922175   0.001764771
C       -0.000847974   0.498259774  -0.000553456
C        0.090082632   0.417032232   0.000036426
C        0.264480805   0.496299768   0.000006122
C        0.347286312   0.407702203  -0.000775440
C        0.560402572   0.407680275  -0.001007529
C        0.731821323   0.496242524   0.000186508
C        0.826979923   0.417016705  -0.000135435
C       -0.003818492   0.745746505  -0.001712059
C        0.081684802   0.663317315  -0.002276584
C        0.249610872   0.745760466  -0.002659534
C        0.337782345   0.664110759  -0.000304583
C        0.496990635   0.763658030   0.001881088
F        0.590150791   0.680466512   0.021457614
C        0.766515897   0.763577170   0.004411273
C        0.826330229   0.664085034   0.001054727
C        0.079766494   0.911866376  -0.001978057
C        0.332103541   0.911835786  -0.002962762
C        0.587082465   0.923353048   0.001808740
C        0.836289679   0.923388929   0.003443050
O        0.564515799   0.770254456   0.213791018
O        0.434566103   0.765421493   0.218063327
K_POINTS automatic 
  20 20 1   0 0 0 

