&CONTROL
	calculation = 'scf' ,
	outdir = './tmp/' ,
	pseudo_dir = '/home/deleted/pseudo_psl' ,
	prefix = 'GI_op' ,
	verbosity = 'high' ,
	etot_conv_thr = 1.0D-5 ,
	forc_conv_thr = 4.0D-4 ,
	nstep = 1000 ,
	dipfield = .true. ,
/
&SYSTEM
	ibrav = 4,
	A = 9.88 ,
	C = 15 ,
	nat = 31,
	ntyp = 2,
	ecutwfc = 40.424239707 ,
	ecutrho = 404.24239707 ,
	occupations = 'tetrahedra' ,
	degauss = 0.01 ,
	input_dft = 'vdW-DF' ,
    nspin = 2 ,
    starting_magnetization(1) = 0.5,
    starting_magnetization(2) = 0.5,
/
&ELECTRONS
	electron_maxstep = 50001,
	conv_thr = 1.0D-6 ,
	mixing_mode = 'local-TF' ,
	mixing_beta = 0.5 ,
/
ATOMIC_SPECIES
	C	12.01100	C.revpbe-n-kjpaw_psl.0.1.UPF 
	I	126.90400	I.revpbe-n-kjpaw_psl.0.2.UPF  
ATOMIC_POSITIONS (crystal)
C       -0.001602464  -0.000494451  -0.000671397
C        0.244567763  -0.010864474  -0.000482992
C        0.501108012  -0.000494451  -0.000671397
C        0.757147563   0.014295125  -0.001139340
C        0.007174197   0.255992175  -0.001368987
C        0.084753991   0.166714080  -0.000684776
C        0.251753488   0.243580325  -0.000589343
C        0.325874166   0.151748334  -0.000129273
C        0.491826837   0.243580325  -0.000589343
C        0.581960088   0.166714080  -0.000684776
C        0.748817979   0.255992175  -0.001368987
C        0.838514674   0.177029348  -0.001177057
C        0.000628698   0.501257397  -0.002673579
C        0.095666574   0.420869704  -0.002367399
C        0.273255159   0.498846240  -0.002756839
C        0.351749987   0.405853482  -0.001611314
C        0.554103494   0.405853482  -0.001611314
C        0.725591080   0.498846240  -0.002756839
C        0.825203129   0.420869704  -0.002367399
C       -0.012686732   0.745204400  -0.002267999
C        0.082427719   0.664855439  -0.002634233
C        0.257891132   0.745204400  -0.002267999
C        0.357135812   0.667262916  -0.002828268
C        0.528732297   0.760374075  -0.001367338
I        0.587030603   0.674061207   0.212094679
C        0.731641778   0.760374075  -0.001367338
C        0.810127102   0.667262916  -0.002828268
C        0.075859656   0.910159464  -0.000989692
C        0.334299808   0.910159464  -0.000989692
C        0.591333322   0.922779738  -0.001092418
C        0.831446415   0.922779738  -0.001092418
K_POINTS automatic 
  20 20 1   0 0 0 
