 &CONTROL
                 calculation = 'scf' ,
                      outdir = './tmp/' ,
                  pseudo_dir = '/home/deleted/pseudo_psl' ,
                      prefix = 'GBr_op' ,
                   verbosity = 'high' ,
               etot_conv_thr = 1.0D-5 ,
               forc_conv_thr = 4.0D-4 ,
                       nstep = 1000 ,
                    dipfield = .true. ,
 /
 &SYSTEM
                       ibrav = 4,
                           A = 9.88 ,
                           C = 15 ,
                         nat = 34,
                        ntyp = 4,
                     ecutwfc = 40.424239707 ,
                     ecutrho = 404.24239707 ,
                 occupations = 'smearing' ,
                     degauss = 0.01 ,
				   input_dft = 'vdW-DF' ,
    nspin = 2 ,
    starting_magnetization(1) = 0.5,
    starting_magnetization(2) = 0.5,
    starting_magnetization(3) = 0.5,
 /
 &ELECTRONS
            electron_maxstep = 50001,
                    conv_thr = 1.0D-6 ,
                 mixing_mode = 'local-TF' ,
                 mixing_beta = 0.5 ,
 /
ATOMIC_SPECIES
    C   12.01100  C.revpbe-n-kjpaw_psl.0.1.UPF 
   Br   79.90350  Br.revpbe-n-kjpaw_psl.0.2.UPF 
    O   15.99940  O.revpbe-n-kjpaw_psl.0.1.UPF 
    H   1.008000  H.revpbe-kjpaw_psl.0.1.UPF
ATOMIC_POSITIONS (crystal)
C       -0.001695156  -0.000815275  -0.006483226
C        0.244406048  -0.011330433  -0.006134323
C        0.501023113  -0.000817296  -0.006485013
C        0.756980375   0.013817060  -0.007119228
C        0.007000042   0.255642821  -0.007384682
C        0.084712801   0.166374076  -0.006722829
C        0.251742474   0.243287258  -0.006757848
C        0.325793058   0.151442340  -0.006164260
C        0.491689733   0.243288337  -0.006756406
C        0.581806403   0.166373377  -0.006719912
C        0.748787960   0.255641705  -0.007382884
C        0.838498162   0.176849133  -0.007251644
C        0.000467010   0.500786249  -0.008426552
C        0.095522686   0.420545801  -0.008237276
C        0.273417670   0.498673098  -0.008647949
C        0.352168691   0.405662021  -0.007825465
C        0.553639950   0.405659694  -0.007825219
C        0.725403685   0.498670749  -0.008645251
C        0.825170874   0.420544269  -0.008235504
C       -0.012789289   0.744781470  -0.007827532
C        0.082368382   0.664590710  -0.008253841
C        0.257717811   0.744784382  -0.007830956
C        0.356796941   0.666785911  -0.008449626
C        0.528788180   0.759906697  -0.006317801
Br       0.595927769   0.691528658   0.179047747
C        0.731248062   0.759900192  -0.006290818
C        0.810135672   0.666782263  -0.008439565
C        0.075828342   0.909816913  -0.006560938
C        0.334130852   0.909816015  -0.006562169
C        0.591317761   0.922563609  -0.006763419
C        0.831387768   0.922564812  -0.006751426
O        0.551666840   0.702061518   0.426605314
O        0.565307431   0.714998248   0.508484911
H        0.802608169   0.587292178   0.470631583
K_POINTS automatic 
  16 16 1   0 0 0 

