 &CONTROL
                 calculation = 'scf' ,
                      outdir = './tmp/' ,
                  pseudo_dir = '/home/deleted/pseudo_psl' ,
                      prefix = 'GCl_ip' ,
                   verbosity = 'high' ,
               etot_conv_thr = 1.0D-5 ,
               forc_conv_thr = 4.0D-4 ,
                       nstep = 1000 ,
                    dipfield = .true. ,
 /
 &SYSTEM
                       ibrav = 4,
                           A = 9.88 ,
                           C = 15 ,
                         nat = 34,
                        ntyp = 4,
                     ecutwfc = 40.424239707 ,
                     ecutrho = 404.24239707 ,
                 occupations = 'smearing' ,
                     degauss = 0.01 ,
				   input_dft = 'vdW-DF' ,
    nspin = 2 ,
    starting_magnetization(1) = 0.5,
    starting_magnetization(2) = 0.5,
    starting_magnetization(3) = 0.5,
 /
 &ELECTRONS
            electron_maxstep = 50001,
                    conv_thr = 1.0D-6 ,
                 mixing_mode = 'local-TF' ,
                 mixing_beta = 0.5 ,
 /
ATOMIC_SPECIES
    C   12.01100  C.revpbe-n-kjpaw_psl.0.1.UPF 
   Cl   35.45200  Cl.revpbe-n-kjpaw_psl.0.3.0.UPF 
    O   15.99940  O.revpbe-n-kjpaw_psl.0.1.UPF 
    H   1.008000  H.revpbe-kjpaw_psl.0.1.UPF
ATOMIC_POSITIONS (crystal)
C        0.002586114   0.002933689  -0.001768430
C        0.255011008   0.009085065  -0.001818463
C        0.501231111   0.002578491  -0.002525375
C        0.749218497  -0.002459023  -0.002790514
C       -0.000720925   0.250243746  -0.001739489
C        0.085184983   0.170388031  -0.002382735
C        0.253790354   0.258312198  -0.003874067
C        0.338162423   0.175431480  -0.002988950
C        0.505345051   0.257912536  -0.002625274
C        0.586081775   0.170036058  -0.001695284
C        0.751836542   0.250175375  -0.000825520
C        0.832400079   0.163878033  -0.001401291
C        0.001616502   0.502438861  -0.000341170
C        0.079877601   0.416759267  -0.001991359
C        0.244123620   0.501867620  -0.004968396
C        0.324577674   0.422884323  -0.006424630
C        0.598844421   0.422508162  -0.003107256
C        0.758289521   0.501776188  -0.000906880
C        0.837650304   0.416721225   0.000060206
C        0.007444362   0.756206408  -0.000278378
C        0.085631439   0.670443627  -0.000563664
C        0.249545782   0.756156178  -0.002376374
C        0.328723332   0.671112973  -0.005233063
C        0.488139342   0.750114767  -0.006778419
Cl       0.543231416   0.586301874  -0.007536420
C        0.762893938   0.750496803  -0.003106999
C        0.843025344   0.671197544  -0.000998119
C        0.088174738   0.922756539  -0.001220717
C        0.335472996   0.922677915  -0.002147441
C        0.581946912   0.914672761  -0.003967538
C        0.833969957   0.915081192  -0.002549432
O        0.472735085   0.578856445   0.202498340
O        0.371950984   0.637357268   0.216723846
H        0.391678854   0.672323684   0.279179483
K_POINTS automatic 
  16 16 1   0 0 0 

