 &CONTROL
                 calculation = 'scf' ,
                      outdir = './tmp_subs/' ,
                  pseudo_dir = '/home/deleted/pseudo_psl' ,
                      prefix = 'GI_ip_subs' ,
                   verbosity = 'high' ,
               etot_conv_thr = 1.0D-5 ,
               forc_conv_thr = 4.0D-4 ,
                       nstep = 1000 ,
                    dipfield = .true. ,
 /
 &SYSTEM
                       ibrav = 4,
                           A = 9.88 ,
                           C = 15 ,
                         nat = 31,
                        ntyp = 2,
                     ecutwfc = 40.424239707 ,
                     ecutrho = 404.24239707 ,
                 occupations = 'smearing' ,
                     degauss = 0.01 ,
				   input_dft = 'vdW-DF' ,
 /
 &ELECTRONS
            electron_maxstep = 50001,
                    conv_thr = 1.0D-6 ,
                 mixing_mode = 'local-TF' ,
                 mixing_beta = 0.5 ,
 /
ATOMIC_SPECIES
    C   12.01100  C.revpbe-n-kjpaw_psl.0.1.UPF 
    I  126.90400  I.revpbe-n-kjpaw_psl.0.2.UPF 
ATOMIC_POSITIONS crystal 
C       -0.000467475  -0.002749170   0.003974500
C        0.252187220   0.004374441   0.007665453
C        0.497718305  -0.002749170   0.003974500
C        0.745999706  -0.008000587  -0.005563519
C       -0.004568692   0.243947004   0.011001778
C        0.081299740   0.164366240   0.003964728
C        0.248251126   0.250924608  -0.006940964
C        0.334774257   0.169548515  -0.005475175
C        0.502673482   0.250924608  -0.006940964
C        0.583066499   0.164366240   0.003964728
C        0.748515695   0.243947004   0.011001778
C        0.828581618   0.157163237   0.007592981
C       -0.001604145   0.496791711   0.026083025
C        0.076069974   0.410671745   0.018404424
C        0.237827330   0.495573692   0.003117280
C        0.313331391   0.414087599  -0.015611271
C        0.600756207   0.414087599  -0.015611271
C        0.757746362   0.495573692   0.003117280
C        0.834601771   0.410671745   0.018404424
C        0.004700277   0.750872013   0.018405454
C        0.082381329   0.664762658   0.026084352
C        0.246171736   0.750872013   0.018405454
C        0.322999719   0.665961089   0.003091572
C        0.479967301   0.747528562  -0.015696612
I        0.540417196   0.580834392  -0.061735377
C        0.767561261   0.747528562  -0.015696612
C        0.842961369   0.665961089   0.003091572
C        0.085343199   0.917609663   0.011043439
C        0.332266464   0.917609663   0.011043439
C        0.578085059   0.910673508  -0.006995881
C        0.832588448   0.910673508  -0.006995881
K_POINTS automatic 
  16 16 1   0 0 0 

