&PROJWFC
  outdir = './tmp',
  prefix = 'PG_ip',
  filpdos = 'PG_ip-pdos',
  ngauss = 1,
  degauss = 0.01,
  DeltaE = 0.01,
  lsym = .true.
/
