 &CONTROL
                 calculation = 'nscf' ,
                      outdir = './tmp/' ,
                  pseudo_dir = '/home/deleted/pseudo_psl' ,
                      prefix = 'GF_op' ,
                   verbosity = 'high' ,
               etot_conv_thr = 1.0D-5 ,
               forc_conv_thr = 4.0D-4 ,
                       nstep = 1000 ,
                    dipfield = .true. ,
 /
 &SYSTEM
                       ibrav = 4,
                           A = 9.88 ,
                           C = 15 ,
                         nat = 34,
                        ntyp = 4,
                     ecutwfc = 40.424239707 ,
                     ecutrho = 404.24239707 ,
                 occupations = 'tetrahedra' ,
                     degauss = 0.01 ,
				   input_dft = 'vdW-DF' ,
    nspin = 2 ,
    starting_magnetization(1) = 0.5,
    starting_magnetization(2) = 0.5,
    starting_magnetization(3) = 0.5,
 /
 &ELECTRONS
            electron_maxstep = 50001,
                    conv_thr = 1.0D-6 ,
                 mixing_mode = 'local-TF' ,
                 mixing_beta = 0.5 ,
 /
ATOMIC_SPECIES
    C   12.01100  C.revpbe-n-kjpaw_psl.0.1.UPF 
    F   18.99800  F.revpbe-n-kjpaw_psl.0.1.UPF 
    O   15.99940  O.revpbe-n-kjpaw_psl.0.1.UPF 
    H   1.008000  H.revpbe-kjpaw_psl.0.1.UPF
ATOMIC_POSITIONS (crystal)
C        0.006211737   0.001250084  -0.001797585
C        0.250174737  -0.006859257   0.000924004
C        0.502231769   0.001220887  -0.002407324
C        0.757122479   0.006960492  -0.008236495
C        0.007238674   0.251895063  -0.002870584
C        0.089265486   0.167407303  -0.000777285
C        0.256140214   0.245998475   0.000689015
C        0.331550716   0.155857031   0.001628471
C        0.497153095   0.245982782   0.000623297
C        0.585376921   0.167353345  -0.000993411
C        0.751911075   0.251832778  -0.002985095
C        0.839143307   0.170978096  -0.005007955
C        0.002970761   0.498545539  -0.002908083
C        0.093937037   0.417133206  -0.002848820
C        0.268486129   0.496627947  -0.003450123
C        0.351168749   0.408099559  -0.001312368
C        0.564135188   0.408055776  -0.001190168
C        0.735514324   0.496527278  -0.003423155
C        0.830563178   0.417052179  -0.002964091
C       -0.000192301   0.746010005  -0.001795119
C        0.085387052   0.663478853  -0.001552831
C        0.253575837   0.746112102  -0.002130733
C        0.341720934   0.664465710  -0.005966543
C        0.500675589   0.764232728  -0.011756982
F        0.594773122   0.682367787  -0.032664646
C        0.770291284   0.763988208  -0.009557744
C        0.829969944   0.664311758  -0.005306515
C        0.083469553   0.912128002  -0.000493121
C        0.335930441   0.912111992  -0.000884492
C        0.590542069   0.923567036  -0.008682564
C        0.840129074   0.923618696  -0.007781093
O        0.701980530   0.923204076   0.178182547
O        0.621285225   0.758522717   0.165517407
H        0.687997203   0.726140038   0.196569145
K_POINTS automatic 
  20 20 1   0 0 0 

