 &CONTROL
                 calculation = 'nscf' ,
                      outdir = './tmp/' ,
                  pseudo_dir = '/home/deleted/pseudo_psl' ,
                      prefix = 'GF_ip' ,
                   verbosity = 'high' ,
               etot_conv_thr = 1.0D-5 ,
               forc_conv_thr = 4.0D-4 ,
                       nstep = 1000 ,
                    dipfield = .true. ,
 /
 &SYSTEM
                       ibrav = 4,
                           A = 9.88 ,
                           C = 15 ,
                         nat = 34,
                        ntyp = 4,
                     ecutwfc = 40.424239707 ,
                     ecutrho = 404.24239707 ,
                 occupations = 'tetrahedra' ,
                     degauss = 0.01 ,
				   input_dft = 'vdW-DF' ,
    nspin = 2 ,
    starting_magnetization(1) = 0.5,
    starting_magnetization(2) = 0.5,
    starting_magnetization(3) = 0.5,
 /
 &ELECTRONS
            electron_maxstep = 50001,
                    conv_thr = 1.0D-6 ,
                 mixing_mode = 'local-TF' ,
                 mixing_beta = 0.5 ,
 /
ATOMIC_SPECIES
    C   12.01100  C.revpbe-n-kjpaw_psl.0.1.UPF 
    F   18.99800  F.revpbe-n-kjpaw_psl.0.1.UPF 
    O   15.99940  O.revpbe-n-kjpaw_psl.0.1.UPF 
    H   1.008000  H.revpbe-kjpaw_psl.0.1.UPF
ATOMIC_POSITIONS (crystal)
C        0.006296276  -0.006568902   0.016736983
C        0.252171296  -0.010572020   0.011973483
C        0.503786301  -0.007987033   0.004754574
C        0.757550250  -0.007284386   0.005958991
C        0.007201040   0.242919281   0.009321524
C        0.090652619   0.159865959   0.013051267
C        0.256429225   0.239157622   0.019360019
C        0.335474787   0.155631859   0.014507589
C        0.504355718   0.243170341   0.010765397
C        0.588842051   0.159707156   0.008335622
C        0.754452726   0.242999490   0.004567834
C        0.841061297   0.160285717   0.004967394
C        0.004648464   0.492404413   0.004013875
C        0.093978105   0.411244097   0.003728319
C        0.261127375   0.493936092   0.000952574
C        0.346461805   0.408451427   0.036328658
C        0.578444062   0.405096715   0.009731731
C        0.746510816   0.491837039   0.015736826
C        0.835553670   0.409303262   0.007112958
C        0.002082806   0.739745482   0.016166645
C        0.087056205   0.657956363   0.006441119
C        0.253671795   0.741983160   0.000987784
C        0.338004043   0.659394910  -0.009647755
C        0.499378419   0.751761069  -0.026613175
F        0.569620690   0.678606820  -0.066783239
C        0.766649024   0.750230807   0.054658371
C        0.838115153   0.657957767   0.026112993
C        0.087740784   0.908049247   0.017501625
C        0.337477366   0.907809914   0.004909863
C        0.588417860   0.910406106  -0.005641514
C        0.840779080   0.913114768   0.021426170
O        0.657665679   0.701388408   0.109969417
O        0.380231901   0.441327232   0.126746640
H        0.480195929   0.541355068   0.132439300
K_POINTS automatic 
  20 20 1   0 0 0 

