 &CONTROL
                 calculation = 'bands' ,
                      outdir = './tmp/' ,
                  pseudo_dir = '/home/deleted/pseudo_psl' ,
                      prefix = 'GI_ip' ,
                   verbosity = 'high' ,
               etot_conv_thr = 1.0D-5 ,
               forc_conv_thr = 4.0D-4 ,
                       nstep = 1000 ,
                    dipfield = .true. ,
 /
 &SYSTEM
                       ibrav = 4,
                           A = 9.88 ,
                           C = 15 ,
                         nat = 34,
                        ntyp = 4,
                     ecutwfc = 40.424239707 ,
                     ecutrho = 404.24239707 ,
                 occupations = 'tetrahedra' ,
                     degauss = 0.01 ,
				   input_dft = 'vdW-DF' ,
 /
 &ELECTRONS
            electron_maxstep = 50001,
                    conv_thr = 1.0D-6 ,
                 mixing_mode = 'local-TF' ,
                 mixing_beta = 0.5 ,
 /
ATOMIC_SPECIES
    C   12.01100  C.revpbe-n-kjpaw_psl.0.1.UPF 
    I  126.90400  I.revpbe-n-kjpaw_psl.0.2.UPF 
    O   15.99940  O.revpbe-n-kjpaw_psl.0.1.UPF 
    H   1.008000  H.revpbe-kjpaw_psl.0.1.UPF
ATOMIC_POSITIONS crystal 
C        0.002413449   0.002211457   0.005610328
C        0.254668671   0.008684348   0.007960804
C        0.500615529   0.001731378   0.003585163
C        0.748422739  -0.003298630  -0.005507949
C       -0.001778242   0.248869628   0.010534608
C        0.084245362   0.169095771   0.003865377
C        0.250871440   0.255552808  -0.008150899
C        0.337194835   0.174137992  -0.005052824
C        0.505348503   0.255520267  -0.004223880
C        0.585735111   0.168619255   0.005722977
C        0.751324037   0.248642435   0.012767450
C        0.831390784   0.162094219   0.007991831
C        0.001635724   0.501268731   0.026348147
C        0.079130723   0.415424660   0.016978248
C        0.240904356   0.500518699   0.000416322
C        0.315524107   0.418699844  -0.020361010
C        0.602590196   0.419183143  -0.009792958
C        0.759735681   0.500310293   0.009038461
C        0.837449657   0.415198541   0.021478360
C        0.007713268   0.755783061   0.021221816
C        0.085888721   0.669719818   0.026120748
C        0.249141634   0.755570943   0.016411187
C        0.325941823   0.670569014   0.000007671
C        0.481940040   0.752518930  -0.021850900
I        0.545020867   0.585461339  -0.061779945
C        0.769359856   0.751960342  -0.010919201
C        0.844975701   0.670758978   0.008656463
C        0.088102011   0.922257381   0.012610557
C        0.334825542   0.921997066   0.010176307
C        0.580674386   0.915271350  -0.008840426
C        0.835230374   0.915364310  -0.004772069
O        0.486487577   0.588605541   0.152218685
O        0.348076048   0.598121715   0.167424929
H        0.454377083   0.482126456   0.172103188
K_POINTS crystal_b 
4
0.0000000000    0.0000000000    0.0000000000 17
0.0000000000    0.5000000000    0.0000000000 10
0.3333333333    0.3333333333    0.0000000000 20
0.0000000000    0.0000000000    0.0000000000 1

