 &CONTROL
                 calculation = 'scf' ,
                      outdir = './tmp_subs/' ,
                  pseudo_dir = '/home/deleted/pseudo_psl' ,
                      prefix = 'GI_op-subs' ,
                   verbosity = 'high' ,
               etot_conv_thr = 1.0D-5 ,
               forc_conv_thr = 4.0D-4 ,
                       nstep = 1000 ,
                    dipfield = .true. ,
 /
 &SYSTEM
                       ibrav = 4,
                           A = 9.88 ,
                           C = 15 ,
                         nat = 31,
                        ntyp = 2,
                     ecutwfc = 40.424239707 ,
                     ecutrho = 404.24239707 ,
                 occupations = 'smearing' ,
                     degauss = 0.01 ,
				   input_dft = 'vdW-DF' ,
    nspin = 2 ,
    starting_magnetization(1) = 0.5,
    starting_magnetization(2) = 0.5,
 /
 &ELECTRONS
            electron_maxstep = 50001,
                    conv_thr = 1.0D-6 ,
                 mixing_mode = 'local-TF' ,
                 mixing_beta = 0.5 ,
 /
ATOMIC_SPECIES
    C   12.01100  C.revpbe-n-kjpaw_psl.0.1.UPF 
    I  126.90400  I.revpbe-n-kjpaw_psl.0.2.UPF 
ATOMIC_POSITIONS (crystal)
C        0.001492559  -0.005595413  -0.005318411
C        0.247762006  -0.015884732  -0.006219719
C        0.504292585  -0.005577210  -0.006978590
C        0.760358964   0.009387891  -0.005688238
C        0.010379858   0.250954350  -0.005587055
C        0.087839409   0.161605480  -0.005315787
C        0.254797033   0.238347676  -0.005812140
C        0.329119599   0.146836471  -0.006289040
C        0.494945810   0.238349636  -0.006527668
C        0.585140648   0.161594757  -0.006653169
C        0.751937742   0.250939005  -0.006308403
C        0.841670900   0.171980441  -0.005645692
C        0.003827540   0.496249192  -0.006876493
C        0.098916021   0.415896393  -0.006594839
C        0.276133474   0.493852474  -0.007201674
C        0.354555361   0.400734870  -0.005961979
C        0.557579236   0.400747151  -0.006225140
C        0.729143549   0.493859122  -0.007342079
C        0.828377979   0.415884199  -0.006840673
C       -0.009398196   0.740251455  -0.006662434
C        0.085630844   0.659843721  -0.006941673
C        0.261059380   0.740247805  -0.007047283
C        0.360696474   0.662287930  -0.007411459
C        0.532174505   0.755323513  -0.006888189
I        0.499751331   0.484817372   0.208847673
C        0.734480348   0.755271706  -0.006326084
C        0.812994579   0.662285345  -0.007100724
C        0.079092639   0.905133807  -0.005904497
C        0.337462170   0.905140742  -0.006796833
C        0.594427072   0.917578834  -0.006677792
C        0.834476355   0.917542560  -0.005490883
K_POINTS automatic 
  16 16 1   0 0 0 

