 &CONTROL
                 calculation = 'nscf' ,
                      outdir = './tmp/' ,
                  pseudo_dir = '/home/deleted/pseudo_psl' ,
                      prefix = 'GCl_ip' ,
                   verbosity = 'high' ,
               etot_conv_thr = 1.0D-5 ,
               forc_conv_thr = 4.0D-4 ,
                       nstep = 1000 ,
                    dipfield = .true. ,
 /
 &SYSTEM
                       ibrav = 4,
                           A = 9.88 ,
                           C = 15 ,
                         nat = 34,
                        ntyp = 4,
                     ecutwfc = 40.424239707 ,
                     ecutrho = 404.24239707 ,
                 occupations = 'tetrahedra' ,
                     degauss = 0.01 ,
				   input_dft = 'vdW-DF' ,
    nspin = 2 ,
    starting_magnetization(1) = 0.5,
    starting_magnetization(2) = 0.5,
    starting_magnetization(3) = 0.5,
 /
 &ELECTRONS
            electron_maxstep = 50001,
                    conv_thr = 1.0D-6 ,
                 mixing_mode = 'local-TF' ,
                 mixing_beta = 0.5 ,
 /
ATOMIC_SPECIES
    C   12.01100  C.revpbe-n-kjpaw_psl.0.1.UPF 
   Cl   35.45200  Cl.revpbe-n-kjpaw_psl.0.3.0.UPF 
    O   15.99940  O.revpbe-n-kjpaw_psl.0.1.UPF 
    H   1.008000  H.revpbe-kjpaw_psl.0.1.UPF
ATOMIC_POSITIONS (crystal)
C       -0.003926554   0.016515182   0.005115851
C        0.244843845   0.014468024  -0.007869908
C        0.494790849   0.016093595   0.007116089
C        0.747675664   0.020189923   0.016855847
C       -0.002648732   0.267155227   0.005337847
C        0.078919598   0.182225296  -0.001205445
C        0.242174735   0.261642623  -0.021662328
C        0.328498529   0.178894546  -0.023685689
C        0.497511316   0.260917861  -0.022156940
C        0.578377846   0.180365971   0.002408481
C        0.745875696   0.266681921   0.010240655
C        0.830468404   0.184637922   0.011546889
C       -0.005831417   0.515723131   0.009788170
C        0.079729375   0.433317751   0.004491754
C        0.247478375   0.516673643  -0.006612570
C        0.310410698   0.423571258  -0.033567521
C        0.594874146   0.421933009  -0.036214463
C        0.731142013   0.510910573   0.025145324
C        0.828404672   0.431218188   0.013031756
C       -0.008070186   0.765462880   0.007042312
C        0.078060271   0.682707673   0.006336513
C        0.245891375   0.765355641   0.005037092
C        0.334488417   0.683732281   0.005894322
C        0.499705024   0.772313833   0.019184064
Cl       0.492343680   0.498771626  -0.094695051
C        0.747607222   0.773202481   0.021706577
C        0.823587628   0.685839192   0.014321662
C        0.077556914   0.931813513   0.000815290
C        0.328164774   0.931504106   0.001515565
C        0.580361894   0.935800396   0.016987208
C        0.830797797   0.937293466   0.015674789
O        0.585442893   0.697699348   0.036880750
O        0.667799632   0.478518352   0.119830156
H        0.758292716   0.520967679   0.159477644
K_POINTS automatic 
  20 20 1   0 0 0 

