 &CONTROL
                 calculation = 'relax' ,
                      outdir = './tmp/' ,
                  pseudo_dir = '/home/deleted/pseudo_psl' ,
                      prefix = 'GBr_op' ,
                   verbosity = 'high' ,
               etot_conv_thr = 1.0D-5 ,
               forc_conv_thr = 4.0D-4 ,
                       nstep = 1000 ,
                    dipfield = .true. ,
 /
 &SYSTEM
                       ibrav = 4,
                           A = 9.88 ,
                           C = 15 ,
                         nat = 34,
                        ntyp = 4,
                     ecutwfc = 40.424239707 ,
                     ecutrho = 404.24239707 ,
                 occupations = 'smearing' ,
                     degauss = 0.01 ,
				   input_dft = 'vdW-DF' ,
    nspin = 2 ,
    starting_magnetization(1) = 0.5,
    starting_magnetization(2) = 0.5,
    starting_magnetization(3) = 0.5,
	starting_magnetization(4) = 0.5,
 /
 &ELECTRONS
            electron_maxstep = 50001,
                    conv_thr = 1.0D-6 ,
                 mixing_mode = 'local-TF' ,
                 mixing_beta = 0.5 ,
 /
 &IONS
                ion_dynamics = 'bfgs' ,
 /
ATOMIC_SPECIES
    C   12.01100  C.revpbe-n-kjpaw_psl.0.1.UPF 
   Br   79.90350  Br.revpbe-n-kjpaw_psl.0.2.UPF 
    O   15.99940  O.revpbe-n-kjpaw_psl.0.1.UPF 
    H   1.008000  H.revpbe-kjpaw_psl.0.1.UPF
ATOMIC_POSITIONS (crystal)
C       -0.001031266   0.000700597  -0.004209193
C        0.245195798  -0.009608402  -0.003586294
C        0.501731864   0.000700597  -0.004209193
C        0.757833217   0.015666434  -0.005047553
C        0.007736003   0.257120363  -0.004066980
C        0.085230415   0.167781982  -0.004096149
C        0.252213281   0.244621360  -0.004160905
C        0.326444788   0.152889579  -0.003964570
C        0.492408078   0.244621360  -0.004160905
C        0.582551566   0.167781982  -0.004096149
C        0.749384360   0.257120363  -0.004066980
C        0.839040708   0.178081418  -0.004498964
C        0.001204500   0.502409001  -0.003525675
C        0.096158705   0.421945600  -0.003729318
C        0.274004640   0.499937869  -0.003933148
C        0.351931299   0.406816767  -0.004374616
C        0.554885467   0.406816767  -0.004374616
C        0.725933230   0.499937869  -0.003933148
C        0.825786894   0.421945600  -0.003729318
C       -0.011846370   0.746570501  -0.003541567
C        0.083062678   0.666125357  -0.003411774
C        0.258416872   0.746570501  -0.003541567
C        0.358303548   0.668768079  -0.003921431
C        0.529173800   0.761882799  -0.004452301
Br       0.705648888   0.911297777   0.225229273
C        0.732708999   0.761882799  -0.004452301
C        0.810464529   0.668768079  -0.003921431
C        0.076472597   0.911372076  -0.003631020
C        0.334899478   0.911372076  -0.003631020
C        0.591902760   0.924008012  -0.004816450
C        0.832105252   0.924008012  -0.004816450
O        0.467363224   0.434726447   0.208619768
O        0.396013525   0.292027049   0.221385274
H        0.567481976   0.295479947   0.215002523
K_POINTS automatic 
  4 4 1   0 0 0 

