 &CONTROL
                 calculation = 'scf' ,
                      outdir = './tmp_subs/' ,
                  pseudo_dir = '/home/deleted/pseudo_psl' ,
                      prefix = 'GBr_ip-subs' ,
                   verbosity = 'high' ,
               etot_conv_thr = 1.0D-5 ,
               forc_conv_thr = 4.0D-4 ,
                       nstep = 1000 ,
                    dipfield = .true. ,
 /
 &SYSTEM
                       ibrav = 4,
                           A = 9.88 ,
                           C = 15 ,
                         nat = 31,
                        ntyp = 2,
                     ecutwfc = 40.424239707 ,
                     ecutrho = 404.24239707 ,
                 occupations = 'smearing' ,
                     degauss = 0.01 ,
				   input_dft = 'vdW-DF' ,
    nspin = 2 ,
    starting_magnetization(1) = 0.5,
    starting_magnetization(2) = 0.5,
 /
 &ELECTRONS
            electron_maxstep = 50001,
                    conv_thr = 1.0D-6 ,
                 mixing_mode = 'local-TF' ,
                 mixing_beta = 0.5 ,
 /
ATOMIC_SPECIES
    C   12.01100  C.revpbe-n-kjpaw_psl.0.1.UPF 
   Br   79.90350  Br.revpbe-n-kjpaw_psl.0.2.UPF 
ATOMIC_POSITIONS (crystal)
C        0.002137522   0.002500476   0.002386962
C        0.254581308   0.009162616   0.005851888
C        0.500362954   0.002500476   0.002386962
C        0.748611188  -0.002777623  -0.004333373
C       -0.001753760   0.249434455   0.007524200
C        0.083985713   0.169608000   0.002150629
C        0.251540684   0.256527805  -0.006304239
C        0.337428927   0.174857855  -0.004499052
C        0.504987122   0.256527805  -0.006304239
C        0.585622286   0.169608000   0.002150629
C        0.751188214   0.249434455   0.007524200
C        0.831462788   0.162925576   0.005552803
C        0.000968200   0.501936401   0.018557128
C        0.078874356   0.416114161   0.012595966
C        0.241583929   0.500960426   0.000073706
C        0.317761055   0.419527236  -0.015393697
C        0.601766178   0.419527236  -0.015393697
C        0.759376497   0.500960426   0.000073706
C        0.837239804   0.416114161   0.012595966
C        0.007125143   0.755866797   0.013034660
C        0.085005793   0.670011588   0.018745753
C        0.248741654   0.755866797   0.013034660
C        0.326614161   0.670958220   0.000580552
C        0.484363245   0.752437353  -0.014280570
Br       0.543028744   0.586057489  -0.040365637
C        0.768074108   0.752437353  -0.014280570
C        0.844344057   0.670958220   0.000580552
C        0.087790045   0.922601704   0.007947916
C        0.334811658   0.922601704   0.007947916
C        0.581028198   0.915546095  -0.005790393
C        0.834517896   0.915546095  -0.005790393
K_POINTS automatic 
  16 16 1   0 0 0 

