&INPUTPP
	outdir = './tmp_ads/'
	prefix = 'GBr_op-ads'
	filplot = 'GBr_op-ads-dens'
	plot_num = 0,
	spin_component = 0
/
&PLOT
	nfile = 1
	filepp(1) = 'GBr_op-ads-dens'
	weight(1) = 1.0,
	fileout = 'GBr_op-ads-dens.xsf'
	iflag = 3
	output_format = 5
/
