 &CONTROL
                 calculation = 'nscf' ,
                      outdir = './tmp/' ,
                  pseudo_dir = '/home/deleted/pseudo_psl' ,
                      prefix = 'GCl_ip' ,
                   verbosity = 'high' ,
               etot_conv_thr = 1.0D-5 ,
               forc_conv_thr = 4.0D-4 ,
                       nstep = 1000 ,
                    dipfield = .true. ,
 /
 &SYSTEM
                       ibrav = 4,
                           A = 9.88 ,
                           C = 15 ,
                         nat = 33,
                        ntyp = 3,
                     ecutwfc = 40.424239707 ,
                     ecutrho = 404.24239707 ,
                 occupations = 'tetrahedra' ,
                     degauss = 0.01 ,
				   input_dft = 'vdW-DF' ,
    nspin = 2 ,
    starting_magnetization(1) = 0.5,
    starting_magnetization(2) = 0.5,
    starting_magnetization(3) = 0.5,
 /
 &ELECTRONS
            electron_maxstep = 50001,
                    conv_thr = 1.0D-6 ,
                 mixing_mode = 'local-TF' ,
                 mixing_beta = 0.5 ,
 /
ATOMIC_SPECIES
    C   12.01100  C.revpbe-n-kjpaw_psl.0.1.UPF 
   Cl   35.45200  Cl.revpbe-n-kjpaw_psl.0.3.0.UPF 
    O   15.99940  O.revpbe-n-kjpaw_psl.0.1.UPF 
ATOMIC_POSITIONS (crystal)
C        0.001744985   0.002414597  -0.000286719
C        0.254162363   0.008419811  -0.000436970
C        0.500526874   0.002285364  -0.001947232
C        0.748559076  -0.002719005  -0.001878102
C       -0.001461640   0.249812037  -0.001089659
C        0.084204741   0.169682037  -0.001394691
C        0.252625371   0.257343138  -0.002244207
C        0.337286999   0.174678314  -0.001167224
C        0.504576761   0.257213261  -0.000284716
C        0.585329158   0.169529965  -0.000413512
C        0.751118457   0.249749294   0.000349022
C        0.831708429   0.163528865  -0.000693026
C        0.000908139   0.501997311   0.000729123
C        0.079170007   0.416342590  -0.001399649
C        0.243487120   0.501300482  -0.003927930
C        0.323609519   0.421779236  -0.004336856
C        0.597886611   0.421655040   0.001037281
C        0.757512853   0.501224770   0.002479775
C        0.836960277   0.416268591   0.001840890
C        0.006677161   0.755688150   0.001958425
C        0.084937939   0.669985215   0.000813035
C        0.248859210   0.755651092  -0.001646607
C        0.328236712   0.670760347  -0.004612493
C        0.487862300   0.750316891  -0.006109199
Cl       0.542915445   0.586232476  -0.003223788
C        0.762242128   0.750351366   0.000344256
C        0.842276569   0.670745678   0.002364845
C        0.087337513   0.922201938   0.000548609
C        0.334741294   0.922166090  -0.001294254
C        0.581280063   0.914656906  -0.003496161
C        0.833329469   0.914775562  -0.000714168
O        0.530979084   0.832513644   0.217979905
O        0.456713746   0.686782183   0.212151996
K_POINTS automatic 
  20 20 1   0 0 0 

