 &CONTROL
                 calculation = 'bands' ,
                      outdir = './tmp/' ,
                  pseudo_dir = '/home/deleted/pseudo_psl' ,
                      prefix = 'GCl_op' ,
                   verbosity = 'high' ,
               etot_conv_thr = 1.0D-5 ,
               forc_conv_thr = 4.0D-4 ,
                       nstep = 1000 ,
                    dipfield = .true. ,
 /
 &SYSTEM
                       ibrav = 4,
                           A = 9.88 ,
                           C = 15 ,
                         nat = 34,
                        ntyp = 4,
                     ecutwfc = 40.424239707 ,
                     ecutrho = 404.24239707 ,
                 occupations = 'tetrahedra' ,
                     degauss = 0.01 ,
				   input_dft = 'vdW-DF' ,
 /
 &ELECTRONS
            electron_maxstep = 50001,
                    conv_thr = 1.0D-6 ,
                 mixing_mode = 'local-TF' ,
                 mixing_beta = 0.5 ,
 /
ATOMIC_SPECIES
    C   12.01100  C.revpbe-n-kjpaw_psl.0.1.UPF 
   Cl   35.45200  Cl.revpbe-n-kjpaw_psl.0.3.0.UPF 
    O   15.99940  O.revpbe-n-kjpaw_psl.0.1.UPF 
    H   1.008000  H.revpbe-kjpaw_psl.0.1.UPF
ATOMIC_POSITIONS crystal 
C        0.002751626   0.006839279  -0.006876403
C        0.251968180   0.009222187   0.002485660
C        0.498634377   0.005904786  -0.004532474
C        0.749351574   0.004069250  -0.002977982
C       -0.001604024   0.253489592  -0.010652860
C        0.083969105   0.172985036  -0.001334775
C        0.243231729   0.252383556   0.027978215
C        0.334637067   0.173798618   0.023878076
C        0.502999629   0.251563307   0.026379746
C        0.583132257   0.171873542  -0.000199594
C        0.749593579   0.253195559  -0.009964965
C        0.831754482   0.169546823  -0.011695379
C       -0.000234710   0.504860465  -0.018108655
C        0.080446709   0.419642066  -0.010902590
C        0.239031735   0.500697351   0.018142659
C        0.289779365   0.405979560   0.062211240
C        0.611864914   0.406320546   0.063114159
C        0.755583012   0.501935092   0.013363737
C        0.833555910   0.420025715  -0.011454898
C        0.002579358   0.756173732  -0.007995716
C        0.083133835   0.671539611  -0.011796625
C        0.248149091   0.755811178  -0.004940922
C        0.327063340   0.670112635   0.011505944
C        0.489372056   0.761922460   0.014489808
Cl       0.584586056   0.670963512   0.061420283
C        0.767513998   0.762564155   0.010628841
C        0.836870078   0.669842070   0.006082649
C        0.085322037   0.923556479  -0.004784972
C        0.332791270   0.923155280  -0.002934018
C        0.582226226   0.923331286   0.000390952
C        0.836549726   0.924163903  -0.001559757
O        0.595927606   0.447387145   0.141393705
O        0.353490322   0.455592419   0.143628685
H        0.432573353   0.420348355   0.158450814
K_POINTS automatic  
4
0.0000000000    0.0000000000    0.0000000000 17
0.0000000000    0.5000000000    0.0000000000 10
0.3333333333    0.3333333333    0.0000000000 20
0.0000000000    0.0000000000    0.0000000000 1

