 &CONTROL
                 calculation = 'nscf' ,
                      outdir = './tmp/' ,
                  pseudo_dir = '/home/deleted/pseudo_psl' ,
                      prefix = 'GI_op' ,
                   verbosity = 'high' ,
               etot_conv_thr = 1.0D-5 ,
               forc_conv_thr = 4.0D-4 ,
                       nstep = 1000 ,
                    dipfield = .true. ,
 /
 &SYSTEM
                       ibrav = 4,
                           A = 9.88 ,
                           C = 15 ,
                         nat = 33,
                        ntyp = 3,
                     ecutwfc = 40.424239707 ,
                     ecutrho = 404.24239707 ,
                 occupations = 'tetrahedra' ,
                     degauss = 0.01 ,
				   input_dft = 'vdW-DF' ,
 /
 &ELECTRONS
            electron_maxstep = 50001,
                    conv_thr = 1.0D-6 ,
                 mixing_mode = 'local-TF' ,
                 mixing_beta = 0.5 ,
 /
ATOMIC_SPECIES
    C   12.01100  C.revpbe-n-kjpaw_psl.0.1.UPF 
    I  126.90400  I.revpbe-n-kjpaw_psl.0.2.UPF 
    O   15.99940  O.revpbe-n-kjpaw_psl.0.1.UPF 
ATOMIC_POSITIONS crystal 
C       -0.007414959  -0.012009249  -0.003423184
C        0.238800877  -0.022398248  -0.002721546
C        0.495405710  -0.012009249  -0.003423184
C        0.751656962   0.003313923  -0.004358968
C        0.001669575   0.244627738  -0.002975030
C        0.078984914   0.155185057  -0.002902037
C        0.245934986   0.231882139  -0.002608349
C        0.319937056   0.139874115  -0.002472016
C        0.485947153   0.231882139  -0.002608349
C        0.576200142   0.155185057  -0.002902037
C        0.742958163   0.244627738  -0.002975030
C        0.832764143   0.165528287  -0.003417145
C       -0.005020443   0.489959116  -0.003007263
C        0.090181106   0.409381810  -0.002899770
C        0.267820263   0.487186781  -0.003149024
C        0.345925038   0.393951338  -0.002934785
C        0.548026300   0.393951338  -0.002934785
C        0.719366518   0.487186781  -0.003149024
C        0.819200702   0.409381810  -0.002899770
C       -0.018608774   0.733754574  -0.003377278
C        0.076588975   0.653177950  -0.003218626
C        0.252363347   0.733754574  -0.003377278
C        0.352168232   0.656006899  -0.003740517
C        0.523513402   0.749319703  -0.004554536
I        0.688232917   0.876465833   0.259163843
C        0.725806301   0.749319703  -0.004554536
C        0.803838666   0.656006899  -0.003740517
C        0.069889081   0.898524541  -0.003117474
C        0.328635459   0.898524541  -0.003117474
C        0.585683759   0.911359131  -0.004387538
C        0.825675373   0.911359131  -0.004387538
O        0.567501846   0.635003691   0.181894194
O        0.503700539   0.507401079   0.224943233
K_POINTS automatic 
  20 20 1   0 0 0 

