 &CONTROL
                 calculation = 'scf' ,
                      outdir = './tmp/' ,
                  pseudo_dir = '/home/deleted/pseudo_psl' ,
                      prefix = 'GF_op' ,
                   verbosity = 'high' ,
               etot_conv_thr = 1.0D-5 ,
               forc_conv_thr = 4.0D-4 ,
                       nstep = 1000 ,
                    dipfield = .true. ,
 /
 &SYSTEM
                       ibrav = 4,
                           A = 9.88 ,
                           C = 15 ,
                         nat = 34,
                        ntyp = 4,
                     ecutwfc = 40.424239707 ,
                     ecutrho = 404.24239707 ,
                 occupations = 'smearing' ,
                     degauss = 0.01 ,
				   input_dft = 'vdW-DF' ,
    nspin = 2 ,
    starting_magnetization(1) = 0.5,
    starting_magnetization(2) = 0.5,
    starting_magnetization(3) = 0.5,
 /
 &ELECTRONS
            electron_maxstep = 50001,
                    conv_thr = 1.0D-6 ,
                 mixing_mode = 'local-TF' ,
                 mixing_beta = 0.5 ,
 /
ATOMIC_SPECIES
    C   12.01100  C.revpbe-n-kjpaw_psl.0.1.UPF 
    F   18.99800  F.revpbe-n-kjpaw_psl.0.1.UPF 
    O   15.99940  O.revpbe-n-kjpaw_psl.0.1.UPF 
    H   1.008000  H.revpbe-kjpaw_psl.0.1.UPF
ATOMIC_POSITIONS (crystal)
C        0.006403204   0.009351560   0.018112654
C        0.254787197   0.007630306   0.014767851
C        0.504166706   0.007099217   0.004760108
C        0.755702497   0.006480969   0.006904568
C        0.005538536   0.257668145   0.004277331
C        0.089208240   0.175128412   0.007191373
C        0.257144815   0.259677551   0.004346722
C        0.338932401   0.174094999   0.017944771
C        0.504074613   0.253285460   0.030110191
C        0.588104265   0.172923706   0.015830602
C        0.754475772   0.256931790   0.012874402
C        0.837935061   0.173578920   0.006697389
C        0.003865263   0.507566130   0.007822331
C        0.087949538   0.424166456  -0.001140418
C        0.255270557   0.505170863  -0.013421882
C        0.333033682   0.418881276  -0.015815985
C        0.590198879   0.410419192   0.064383035
C        0.756460540   0.507421128   0.041751446
C        0.837194553   0.424425491   0.018434962
C        0.005330634   0.757171564   0.023962772
C        0.087828131   0.673971952   0.010953821
C        0.254559237   0.757671285   0.001166417
C        0.336938390   0.675270075  -0.016812662
C        0.498668500   0.766617493  -0.030188695
F        0.575494128   0.697656601  -0.067190856
C        0.769228371   0.770562989   0.063143070
C        0.842105858   0.674645876   0.044224023
C        0.089102377   0.924763270   0.019850160
C        0.338091385   0.923682660   0.007258693
C        0.587881211   0.925193266  -0.006796744
C        0.841357009   0.928170743   0.024079610
O        0.654138915   0.728275467   0.115037956
O        0.527076131   0.441812765   0.134326394
H        0.580893002   0.561427628   0.141067186
K_POINTS automatic 
  16 16 1   0 0 0 

