 &CONTROL
                 calculation = 'relax' ,
                      outdir = './tmp/' ,
                  pseudo_dir = '/home/deleted/pseudo_psl' ,
                      prefix = 'GCl_op' ,
                   verbosity = 'high' ,
               etot_conv_thr = 1.0D-5 ,
               forc_conv_thr = 4.0D-4 ,
                       nstep = 1000 ,
                    dipfield = .true. ,
 /
 &SYSTEM
                       ibrav = 4,
                           A = 9.88 ,
                           C = 15 ,
                         nat = 33,
                        ntyp = 3,
                     ecutwfc = 40.424239707 ,
                     ecutrho = 404.24239707 ,
                 occupations = 'smearing' ,
                     degauss = 0.01 ,
				   input_dft = 'vdW-DF' ,
    nspin = 2 ,
    starting_magnetization(1) = 0.5,
    starting_magnetization(2) = 0.5,
    starting_magnetization(3) = 0.5,
 /
 &ELECTRONS
            electron_maxstep = 50001,
                    conv_thr = 1.0D-6 ,
                 mixing_mode = 'local-TF' ,
                 mixing_beta = 0.5 ,
 /
 &IONS
                ion_dynamics = 'bfgs' ,
 /
ATOMIC_SPECIES
    C   12.01100  C.revpbe-n-kjpaw_psl.0.1.UPF 
   Cl   35.45200  Cl.revpbe-n-kjpaw_psl.0.3.0.UPF 
    O   15.99940  O.revpbe-n-kjpaw_psl.0.1.UPF 
ATOMIC_POSITIONS crystal 
C        0.001824001   0.000813760  -0.003572439
C        0.246811089  -0.006377822  -0.012204190
C        0.498989759   0.000813760  -0.003572439
C        0.752966657   0.005933314   0.015585389
C        0.002898398   0.251250612  -0.002240858
C        0.085292153   0.167281481  -0.006931859
C        0.252657276   0.246868471  -0.011203380
C        0.328448361   0.156896722  -0.013762338
C        0.494211195   0.246868471  -0.011203380
C        0.581989327   0.167281481  -0.006931859
C        0.748352214   0.251250612  -0.002240858
C        0.834989786   0.169979573   0.003540380
C       -0.000856582   0.498286837  -0.003459172
C        0.089318054   0.416852951  -0.002965602
C        0.263149989   0.497387026  -0.000970517
C        0.346831019   0.409249755  -0.006845935
C        0.562418735   0.409249755  -0.006845935
C        0.734237037   0.497387026  -0.000970517
C        0.827534896   0.416852951  -0.002965602
C       -0.003385946   0.745946888  -0.005749549
C        0.081664742   0.663329485  -0.007717348
C        0.249332834   0.745946888  -0.005749549
C        0.335686165   0.664766110   0.006069235
C        0.494107094   0.761681640   0.025743261
Cl       0.591786149   0.683572300   0.089567425
C        0.767574547   0.761681640   0.025743261
C        0.829079944   0.664766110   0.006069235
C        0.080059876   0.912343131  -0.008037925
C        0.332283254   0.912343131  -0.008037925
C        0.585064172   0.923081307   0.014263827
C        0.838017134   0.923081307   0.014263827
O        0.535353939   0.570707877   0.2
O        0.464646061   0.429292123   0.2
K_POINTS automatic 
  4 4 1   0 0 0 

