 &CONTROL
                 calculation = 'nscf' ,
                      outdir = './tmp/' ,
                  pseudo_dir = '/home/deleted/pseudo_psl' ,
                      prefix = 'GI_ip' ,
                   verbosity = 'high' ,
               etot_conv_thr = 1.0D-5 ,
               forc_conv_thr = 4.0D-4 ,
                       nstep = 1000 ,
                    dipfield = .true. ,
 /
 &SYSTEM
                       ibrav = 4,
                           A = 9.88 ,
                           C = 15 ,
                         nat = 33,
                        ntyp = 3,
                     ecutwfc = 40.424239707 ,
                     ecutrho = 404.24239707 ,
                 occupations = 'tetrahedra' ,
                     degauss = 0.01 ,
				   input_dft = 'vdW-DF' ,
    nspin = 2 ,
    starting_magnetization(1) = 0.5,
    starting_magnetization(2) = 0.5,
    starting_magnetization(3) = 0.5,
 /
 &ELECTRONS
            electron_maxstep = 50001,
                    conv_thr = 1.0D-6 ,
                 mixing_mode = 'local-TF' ,
                 mixing_beta = 0.5 ,
 /
ATOMIC_SPECIES
    C   12.01100  C.revpbe-n-kjpaw_psl.0.1.UPF 
    I  126.90400  I.revpbe-n-kjpaw_psl.0.2.UPF 
    O   15.99940  O.revpbe-n-kjpaw_psl.0.1.UPF 
ATOMIC_POSITIONS (crystal)
C       -0.009618942   0.002105103   0.003754966
C        0.243101638   0.009201964   0.007995174
C        0.488697116   0.002226441   0.004330136
C        0.737098001  -0.002904380  -0.005997108
C       -0.013614454   0.248922729   0.011925265
C        0.072179374   0.169215793   0.004661490
C        0.239141767   0.255782045  -0.006409061
C        0.325735176   0.174418164  -0.005616849
C        0.493644456   0.255805568  -0.008036970
C        0.574000693   0.169342488   0.003597574
C        0.739520443   0.249014240   0.010756958
C        0.819630995   0.162289779   0.007802526
C       -0.010875892   0.501696841   0.026947462
C        0.067082233   0.415623494   0.020054100
C        0.229073675   0.500550025   0.004845083
C        0.304314343   0.418973224  -0.015096137
C        0.591973441   0.418687773  -0.019111999
C        0.748914861   0.500605270   0.000631869
C        0.825457973   0.415827987   0.017895806
C       -0.004624400   0.755645297   0.017887527
C        0.073161713   0.669753681   0.026930426
C        0.237199830   0.755843566   0.019935613
C        0.314276963   0.670937226   0.004729892
C        0.471036874   0.752472907  -0.015397392
I        0.530308288   0.585623735  -0.063329062
C        0.759127071   0.752833502  -0.019450156
C        0.834088283   0.670926901   0.000534805
C        0.076256468   0.922457278   0.010914103
C        0.323204898   0.922528928   0.011792426
C        0.569115974   0.915700285  -0.006860482
C        0.823625426   0.915695992  -0.008249571
O        0.539548481   0.587281990   0.159096106
O        0.654883894   0.588247501   0.196535482
K_POINTS automatic 
  20 20 1   0 0 0 

