 &CONTROL
                 calculation = 'scf' ,
                      outdir = './tmp_subs/' ,
                  pseudo_dir = '/home/deleted/pseudo_psl' ,
                      prefix = 'GI_op-subs' ,
                   verbosity = 'high' ,
               etot_conv_thr = 1.0D-5 ,
               forc_conv_thr = 4.0D-4 ,
                       nstep = 1000 ,
                    dipfield = .true. ,
 /
 &SYSTEM
                       ibrav = 4,
                           A = 9.88 ,
                           C = 15 ,
                         nat = 31,
                        ntyp = 2,
                     ecutwfc = 40.424239707 ,
                     ecutrho = 404.24239707 ,
                 occupations = 'smearing' ,
                     degauss = 0.01 ,
				   input_dft = 'vdW-DF' ,
    nspin = 2 ,
    starting_magnetization(1) = 0.5,
    starting_magnetization(2) = 0.5,
 /
 &ELECTRONS
            electron_maxstep = 50001,
                    conv_thr = 1.0D-6 ,
                 mixing_mode = 'local-TF' ,
                 mixing_beta = 0.5 ,
 /
ATOMIC_SPECIES
    C   12.01100  C.revpbe-n-kjpaw_psl.0.1.UPF 
    I  126.90400  I.revpbe-n-kjpaw_psl.0.2.UPF 
ATOMIC_POSITIONS (crystal)
C        0.004384714  -0.000714079  -0.005574253
C        0.250696141  -0.011012234  -0.006567513
C        0.507264656  -0.000707373  -0.007027671
C        0.763302967   0.014289523  -0.005867365
C        0.013306331   0.255870323  -0.005449009
C        0.090741793   0.166491317  -0.005500462
C        0.257681747   0.243172588  -0.006048666
C        0.332018782   0.151673771  -0.006612564
C        0.497840266   0.243182167  -0.006493703
C        0.588085825   0.166475592  -0.006467313
C        0.754887676   0.255873192  -0.006001078
C        0.844597235   0.176877516  -0.005512994
C        0.006756843   0.501209541  -0.006565948
C        0.101823071   0.420820774  -0.006275899
C        0.279038929   0.498716629  -0.006901847
C        0.357406842   0.405557930  -0.005814019
C        0.560462056   0.405567569  -0.005989276
C        0.732011272   0.498733155  -0.007116398
C        0.831301826   0.420832313  -0.006529644
C       -0.006515632   0.745168852  -0.006724756
C        0.088563005   0.664797148  -0.006837977
C        0.264012297   0.745174398  -0.007045193
C        0.363687119   0.667168701  -0.007254408
C        0.535185916   0.760164809  -0.006980676
I        0.495992018   0.474360724   0.210066543
C        0.737255256   0.760143650  -0.006417908
C        0.081990596   0.910032884  -0.006205780
C        0.340413493   0.910043800  -0.006980673
C        0.597370265   0.922446963  -0.006892631
C        0.837355000   0.922408018  -0.005688560
K_POINTS automatic 
  16 16 1   0 0 0 

