 &CONTROL
                 calculation = 'scf' ,
                      outdir = './tmp_subs/' ,
                  pseudo_dir = '/home/deleted/pseudo_psl' ,
                      prefix = 'GF_op_subs' ,
                   verbosity = 'high' ,
               etot_conv_thr = 1.0D-5 ,
               forc_conv_thr = 4.0D-4 ,
                       nstep = 1000 ,
                    dipfield = .true. ,
 /
 &SYSTEM
                       ibrav = 4,
                           A = 9.88 ,
                           C = 15 ,
                         nat = 31,
                        ntyp = 2,
                     ecutwfc = 40.424239707 ,
                     ecutrho = 404.24239707 ,
                 occupations = 'smearing' ,
                     degauss = 0.01 ,
				   input_dft = 'vdW-DF' ,
 /
 &ELECTRONS
            electron_maxstep = 50001,
                    conv_thr = 1.0D-6 ,
                 mixing_mode = 'local-TF' ,
                 mixing_beta = 0.5 ,
 /
ATOMIC_SPECIES
    C   12.01100  C.revpbe-n-kjpaw_psl.0.1.UPF 
    F   18.99800  F.revpbe-n-kjpaw_psl.0.1.UPF 
ATOMIC_POSITIONS crystal 
C        0.003684680   0.003933574   0.000999461
C        0.247964600  -0.004070801   0.002991114
C        0.500248894   0.003933574   0.000999461
C        0.754771782   0.009543566  -0.004410354
C        0.005177559   0.254803795  -0.000623249
C        0.087060556   0.170226067   0.001550758
C        0.254121643   0.249188979   0.002557723
C        0.329388238   0.158776479   0.003611551
C        0.495067337   0.249188979   0.002557723
C        0.583165510   0.170226067   0.001550758
C        0.749626236   0.254803795  -0.000623249
C        0.836862822   0.173725645  -0.002285319
C        0.000836365   0.501672729  -0.001109845
C        0.091903813   0.419982223  -0.001019790
C        0.266548125   0.499831500  -0.001291765
C        0.349278793   0.411257955   0.000558069
C        0.561979161   0.411257955   0.000558069
C        0.733283376   0.499831500  -0.001291765
C        0.828078408   0.419982223  -0.001019790
C       -0.002924259   0.748917192   0.000031742
C        0.083194502   0.666389004   0.000118271
C        0.251841451   0.748917192   0.000031742
C        0.340083842   0.667499424  -0.002820858
C        0.500904527   0.764979896  -0.002933186
F        0.595373041   0.690746082  -0.048095189
C        0.764075370   0.764979896  -0.002933186
C        0.827415581   0.667499424  -0.002820858
C        0.081195450   0.914868598   0.001747588
C        0.333673147   0.914868598   0.001747588
C        0.587960756   0.925918634  -0.004231235
C        0.837957878   0.925918634  -0.004231235
K_POINTS automatic 
  16 16 1   0 0 0 

