 &CONTROL
                 calculation = 'nscf' ,
                      outdir = './tmp/' ,
                  pseudo_dir = '/home/deleted/pseudo_psl' ,
                      prefix = 'GBr_ip' ,
                   verbosity = 'high' ,
               etot_conv_thr = 1.0D-5 ,
               forc_conv_thr = 4.0D-4 ,
                       nstep = 1000 ,
                    dipfield = .true. ,
 /
 &SYSTEM
                       ibrav = 4,
                           A = 9.88 ,
                           C = 15 ,
                         nat = 32,
                        ntyp = 3,
                     ecutwfc = 40.424239707 ,
                     ecutrho = 404.24239707 ,
                 occupations = 'tetrahedra' ,
                     degauss = 0.01 ,
				   input_dft = 'vdW-DF' ,
 /
 &ELECTRONS
            electron_maxstep = 50001,
                    conv_thr = 1.0D-6 ,
                 mixing_mode = 'local-TF' ,
                 mixing_beta = 0.5 ,
 /
ATOMIC_SPECIES
    C   12.01100  C.revpbe-n-kjpaw_psl.0.1.UPF 
   Br   79.90350  Br.revpbe-n-kjpaw_psl.0.2.UPF 
    O   15.99940  O.revpbe-n-kjpaw_psl.0.1.UPF 
ATOMIC_POSITIONS crystal 
C       -0.002225930   0.001569767  -0.001984898
C        0.252698361   0.008086513  -0.000846422
C        0.500321126   0.007270922   0.008138357
C        0.745664946  -0.000403691   0.005074616
C       -0.003644501   0.251163335   0.006213343
C        0.078870169   0.167784472   0.003885987
C        0.245259158   0.252831963  -0.004755254
C        0.333899979   0.174188515  -0.010254125
C        0.501204781   0.258864071  -0.015062899
C        0.583686352   0.173476239  -0.003826181
C        0.749411264   0.253487391   0.000135444
C        0.829804397   0.166653077   0.003603445
C        0.000055058   0.504421270   0.008003542
C        0.078283996   0.418041257   0.013157316
C        0.244484262   0.503012414   0.016147631
C        0.312705633   0.414398840  -0.007390772
C        0.597690523   0.422592846  -0.025288360
C        0.758042644   0.505370226  -0.017774736
C        0.835710870   0.420138079  -0.002069382
C        0.006093917   0.756841175  -0.002884348
C        0.085686737   0.671640255   0.005766224
C        0.250951409   0.756079318   0.013041233
C        0.330013037   0.671405677   0.026121344
C        0.492723775   0.763474146   0.058480188
Br       0.521695469   0.565600481  -0.059001954
C        0.765046705   0.756314456  -0.030737178
C        0.843037124   0.674737571  -0.018439817
C        0.085248259   0.922571762  -0.002142595
C        0.333706705   0.924075017   0.008459896
C        0.581880268   0.923983965   0.020189054
C        0.830456696   0.915581486  -0.008661494
O        0.550997962   0.714985106   0.114702795
K_POINTS automatic 
  20 20 1   0 0 0 

