 &CONTROL
                 calculation = 'bands' ,
                      outdir = './tmp/' ,
                  pseudo_dir = '/home/deleted/pseudo_psl' ,
                      prefix = 'GF_op' ,
                   verbosity = 'high' ,
               etot_conv_thr = 1.0D-5 ,
               forc_conv_thr = 4.0D-4 ,
                       nstep = 1000 ,
                    dipfield = .true. ,
 /
 &SYSTEM
                       ibrav = 4,
                           A = 9.88 ,
                           C = 15 ,
                         nat = 34,
                        ntyp = 4,
                     ecutwfc = 40.424239707 ,
                     ecutrho = 404.24239707 ,
                 occupations = 'tetrahedra' ,
                     degauss = 0.01 ,
				   input_dft = 'vdW-DF' ,
    nspin = 2 ,
    starting_magnetization(1) = 0.5,
    starting_magnetization(2) = 0.5,
    starting_magnetization(3) = 0.5,
 /
 &ELECTRONS
            electron_maxstep = 50001,
                    conv_thr = 1.0D-6 ,
                 mixing_mode = 'local-TF' ,
                 mixing_beta = 0.5 ,
 /
ATOMIC_SPECIES
    C   12.01100  C.revpbe-n-kjpaw_psl.0.1.UPF 
    F   18.99800  F.revpbe-n-kjpaw_psl.0.1.UPF 
    O   15.99940  O.revpbe-n-kjpaw_psl.0.1.UPF 
    H   1.008000  H.revpbe-kjpaw_psl.0.1.UPF
ATOMIC_POSITIONS (crystal)
C        0.003637229   0.006037222  -0.003041973
C        0.253225615   0.008665937   0.007423569
C        0.499901074   0.004878010  -0.003382115
C        0.750861226   0.004042744  -0.011585276
C       -0.000019484   0.252953794  -0.012279348
C        0.085252751   0.172685253   0.001411281
C        0.246248881   0.254198083   0.028541347
C        0.336453174   0.173872806   0.026412782
C        0.504932753   0.251823616   0.026680957
C        0.584629417   0.171107956   0.000780150
C        0.750723254   0.252651999  -0.012545568
C        0.833280422   0.169346220  -0.014989996
C        0.000813426   0.504330549  -0.022058544
C        0.081525310   0.418821903  -0.016274083
C        0.242439551   0.500079025   0.005800663
C        0.299744955   0.415002120   0.053174791
C        0.614718724   0.412285044   0.056067899
C        0.754467314   0.500628748   0.003403270
C        0.834443017   0.419246135  -0.016757480
C        0.003195068   0.755847209  -0.006036926
C        0.083971904   0.670544729  -0.011432121
C        0.250120440   0.755626745  -0.005257959
C        0.331056999   0.668393226   0.000454654
C        0.491192122   0.761747403  -0.003600893
F        0.584165994   0.671117850  -0.004706963
C        0.769227446   0.762822004  -0.003411949
C        0.834355528   0.667956203  -0.001035691
C        0.086104153   0.922898505  -0.000097387
C        0.334303879   0.922590951  -0.000059246
C        0.584694663   0.922047070  -0.008199080
C        0.835844243   0.922937355  -0.007863290
O        0.607056459   0.468896635   0.130602099
O        0.380649581   0.489329888   0.125152115
H        0.461932398   0.457275893   0.143972877
K_POINTS automatic 
  20 20 1   0 0 0 

