 &CONTROL
                 calculation = 'scf' ,
                      outdir = './tmp/' ,
                  pseudo_dir = '/home/deleted/pseudo_psl' ,
                      prefix = 'GCl_ip' ,
                   verbosity = 'high' ,
               etot_conv_thr = 1.0D-5 ,
               forc_conv_thr = 4.0D-4 ,
                       nstep = 1000 ,
                    dipfield = .true. ,
 /
 &SYSTEM
                       ibrav = 4,
                           A = 9.88 ,
                           C = 15 ,
                         nat = 33,
                        ntyp = 3,
                     ecutwfc = 40.424239707 ,
                     ecutrho = 404.24239707 ,
                 occupations = 'smearing' ,
                     degauss = 0.01 ,
				   input_dft = 'vdW-DF' ,
    nspin = 2 ,
    starting_magnetization(1) = 0.5,
    starting_magnetization(2) = 0.5,
    starting_magnetization(3) = 0.5,
 /
 &ELECTRONS
            electron_maxstep = 50001,
                    conv_thr = 1.0D-6 ,
                 mixing_mode = 'local-TF' ,
                 mixing_beta = 0.5 ,
 /
ATOMIC_SPECIES
    C   12.01100  C.revpbe-n-kjpaw_psl.0.1.UPF 
   Cl   35.45200  Cl.revpbe-n-kjpaw_psl.0.3.0.UPF 
    O   15.99940  O.revpbe-n-kjpaw_psl.0.1.UPF 
ATOMIC_POSITIONS (crystal)
C        0.001832484   0.002490649  -0.003176884
C        0.254326512   0.008653023  -0.002530493
C        0.500658165   0.002490649  -0.003176884
C        0.748721168  -0.002557664  -0.004018246
C       -0.001348793   0.249894838  -0.002407590
C        0.084283589   0.169735394  -0.002888662
C        0.252686924   0.257448436  -0.002984996
C        0.337451679   0.174903359  -0.002945927
C        0.504761512   0.257448436  -0.002984996
C        0.585451804   0.169735394  -0.002888662
C        0.751243631   0.249894838  -0.002407590
C        0.831827829   0.163655658  -0.002901655
C        0.001045152   0.502090304  -0.001011489
C        0.079307717   0.416416957  -0.001538848
C        0.243666542   0.501430926  -0.002215881
C        0.323761690   0.421885278  -0.003165373
C        0.598123588   0.421885278  -0.003165373
C        0.757764384   0.501430926  -0.002215881
C        0.837109239   0.416416957  -0.001538848
C        0.006857723   0.755853625  -0.001740428
C        0.085048843   0.670097687  -0.001071614
C        0.248995902   0.755853625  -0.001740428
C        0.328412850   0.670935674  -0.002533304
C        0.488062575   0.750541245  -0.004118922
Cl       0.543368679   0.586737360  -0.004424294
C        0.762478669   0.750541245  -0.004118922
C        0.842522823   0.670935674  -0.002533304
C        0.087505907   0.922367428  -0.002467240
C        0.334861521   0.922367428  -0.002467240
C        0.581441618   0.914914724  -0.004021762
C        0.833473104   0.914914724  -0.004021762
O        0.667907101   0.835814202   0.201174990
O        0.663054531   0.826109061   0.284248506
K_POINTS automatic 
  16 16 1   0 0 0 

