 &CONTROL
                 calculation = 'bands' ,
                      outdir = './tmp/' ,
                  pseudo_dir = '/home/deleted/pseudo_psl' ,
                      prefix = 'GF_ip' ,
                   verbosity = 'high' ,
               etot_conv_thr = 1.0D-5 ,
               forc_conv_thr = 4.0D-4 ,
                       nstep = 1000 ,
                    dipfield = .true. ,
 /
 &SYSTEM
                       ibrav = 4,
                           A = 9.88 ,
                           C = 15 ,
                         nat = 34,
                        ntyp = 4,
                     ecutwfc = 40.424239707 ,
                     ecutrho = 404.24239707 ,
                 occupations = 'tetrahedra' ,
                     degauss = 0.01 ,
				   input_dft = 'vdW-DF' ,
 /
 &ELECTRONS
            electron_maxstep = 50001,
                    conv_thr = 1.0D-6 ,
                 mixing_mode = 'local-TF' ,
                 mixing_beta = 0.5 ,
 /
ATOMIC_SPECIES
    C   12.01100  C.revpbe-n-kjpaw_psl.0.1.UPF 
    F   18.99800  F.revpbe-n-kjpaw_psl.0.1.UPF 
    O   15.99940  O.revpbe-n-kjpaw_psl.0.1.UPF 
    H   1.008000  H.revpbe-kjpaw_psl.0.1.UPF
ATOMIC_POSITIONS crystal 
C        0.005006321  -0.007135386   0.011631249
C        0.250090231  -0.015800143   0.014137731
C        0.500936422  -0.005894103   0.005198605
C        0.760209027   0.001500797   0.001572504
C        0.007600558   0.244492313   0.010528756
C        0.088491910   0.159152208   0.012621023
C        0.256170976   0.238648373   0.014589815
C        0.331407258   0.146906860   0.014499945
C        0.495900720   0.236852537   0.013206495
C        0.583773706   0.158444987   0.008136405
C        0.751055452   0.245175061   0.006987434
C        0.839269063   0.163336117   0.006050144
C        0.002722275   0.490948370   0.010907902
C        0.093709140   0.409806540   0.011663230
C        0.269733749   0.491218017   0.014093461
C        0.352905409   0.398818948   0.014864943
C        0.561308386   0.399773432   0.013403993
C        0.732011218   0.489814305   0.010998195
C        0.827692087   0.408473814   0.009943661
C       -0.002728774   0.738336449   0.010632949
C        0.085288808   0.655345947   0.011092654
C        0.254480695   0.735353308   0.012336081
C        0.341093080   0.655623477   0.015993540
C        0.516305618   0.754635332   0.033135787
F        0.567072904   0.873346140  -0.110185436
C        0.754636280   0.750796289   0.006220350
C        0.827182406   0.659052660   0.009224223
C        0.082348588   0.903193945   0.012962324
C        0.337550208   0.905075619   0.011443274
C        0.588593326   0.911905558  -0.013608000
C        0.839487758   0.915554155   0.006415176
O        0.595155718   0.673705217   0.002154841
O        0.545242124   0.787335128   0.126649638
H        0.478669273   0.690558406   0.158832593
K_POINTS crystal_b 
4
0.0000000000    0.0000000000    0.0000000000 17
0.0000000000    0.5000000000    0.0000000000 10
0.3333333333    0.3333333333    0.0000000000 20
0.0000000000    0.0000000000    0.0000000000 1

