 &CONTROL
                 calculation = 'scf' ,
                      outdir = './tmp_subs/' ,
                  pseudo_dir = '/home/deleted/pseudo_psl' ,
                      prefix = 'GCl_ip-subs' ,
                   verbosity = 'high' ,
               etot_conv_thr = 1.0D-5 ,
               forc_conv_thr = 4.0D-4 ,
                       nstep = 1000 ,
                    dipfield = .true. ,
 /
 &SYSTEM
                       ibrav = 4,
                           A = 9.88 ,
                           C = 15 ,
                         nat = 31,
                        ntyp = 2,
                     ecutwfc = 40.424239707 ,
                     ecutrho = 404.24239707 ,
                 occupations = 'smearing' ,
                     degauss = 0.01 ,
				   input_dft = 'vdW-DF' ,
    nspin = 2 ,
    starting_magnetization(1) = 0.5,
    starting_magnetization(2) = 0.5,
 /
 &ELECTRONS
            electron_maxstep = 50001,
                    conv_thr = 1.0D-6 ,
                 mixing_mode = 'local-TF' ,
                 mixing_beta = 0.5 ,
 /
ATOMIC_SPECIES
    C   12.01100  C.revpbe-n-kjpaw_psl.0.1.UPF 
   Cl   35.45200  Cl.revpbe-n-kjpaw_psl.0.3.0.UPF 
ATOMIC_POSITIONS (crystal)
C        0.001837458   0.002542071  -0.001124915
C        0.254308301   0.008616600  -0.000496111
C        0.500704613   0.002542071  -0.001124915
C        0.748762440  -0.002475119  -0.001970054
C       -0.001300417   0.250003504  -0.000577460
C        0.084290063   0.169791251  -0.001007522
C        0.252693141   0.257431707  -0.001429374
C        0.337430906   0.174861814  -0.001295171
C        0.504738567   0.257431707  -0.001429374
C        0.585501187   0.169791251  -0.001007522
C        0.751303921   0.250003504  -0.000577460
C        0.831878073   0.163756145  -0.000850429
C        0.001107818   0.502215636   0.000278387
C        0.079358434   0.416524235  -0.000156757
C        0.243705725   0.501476813  -0.001013134
C        0.323744121   0.421875114  -0.001856980
C        0.598130992   0.421875114  -0.001856980
C        0.757771088   0.501476813  -0.001013134
C        0.837165801   0.416524235  -0.000156757
C        0.006855016   0.755898523  -0.000076129
C        0.085095489   0.670190979   0.000399583
C        0.249043507   0.755898523  -0.000076129
C        0.328445998   0.670969129  -0.001215373
C        0.488069657   0.750570849  -0.002641555
Cl       0.543356179   0.586712359  -0.003068013
C        0.762501192   0.750570849  -0.002641555
C        0.842523130   0.670969129  -0.001215373
C        0.087492265   0.922393282  -0.000426542
C        0.334901017   0.922393282  -0.000426542
C        0.581488768   0.914970266  -0.002074568
C        0.833481497   0.914970266  -0.002074568
K_POINTS automatic 
  16 16 1   0 0 0 

