 &CONTROL
                 calculation = 'relax' ,
                      outdir = './tmp/' ,
                  pseudo_dir = '/home/deleted/pseudo_psl' ,
                      prefix = 'GF_ip' ,
                   verbosity = 'high' ,
               etot_conv_thr = 1.0D-5 ,
               forc_conv_thr = 4.0D-4 ,
                       nstep = 1000 ,
                    dipfield = .true. ,
 /
 &SYSTEM
                       ibrav = 4,
                           A = 9.88 ,
                           C = 15 ,
                         nat = 33,
                        ntyp = 3,
                     ecutwfc = 40.424239707 ,
                     ecutrho = 404.24239707 ,
                 occupations = 'smearing' ,
                     degauss = 0.01 ,
				   input_dft = 'vdW-DF' ,
 /
 &ELECTRONS
            electron_maxstep = 50001,
                    conv_thr = 1.0D-6 ,
                 mixing_mode = 'local-TF' ,
                 mixing_beta = 0.5 ,
 /
 &IONS
                ion_dynamics = 'bfgs' ,
 /
ATOMIC_SPECIES
    C   12.01100  C.revpbe-n-kjpaw_psl.0.1.UPF 
    F   18.99800  F.revpbe-n-kjpaw_psl.0.1.UPF 
    O   15.99940  O.revpbe-n-kjpaw_psl.0.1.UPF 
ATOMIC_POSITIONS crystal 
C       -0.002871754   0.008396215   0.009279998
C        0.246103775   0.006180569   0.015434891
C        0.496925249   0.008782736   0.016248554
C        0.745734350   0.009400270   0.007208794
C       -0.002565820   0.258977240   0.010043605
C        0.078958886   0.174666319   0.014515556
C        0.245269979   0.255658750   0.016929043
C        0.328392503   0.171779396   0.014841109
C        0.494482192   0.255455355   0.009853959
C        0.579773398   0.174638760   0.008543143
C        0.745846412   0.259150562   0.006976247
C        0.829849303   0.175879893   0.006970716
C       -0.003793021   0.508214024   0.009141865
C        0.081856286   0.425481811   0.014053702
C        0.250927087   0.509160425   0.024218712
C        0.329100659   0.419246451   0.019830505
C        0.574759660   0.419630684   0.005629136
C        0.741107625   0.508064479  -0.003763398
C        0.827417930   0.425720300   0.003476458
C       -0.004519235   0.758137508   0.005711432
C        0.079042079   0.674218163   0.012137275
C        0.246118274   0.756666513   0.021076838
C        0.329494024   0.675229529   0.032641583
C        0.495042575   0.769376122   0.060936645
F        0.632348513   0.713971830  -0.081741220
C        0.764752948   0.771633020  -0.030663796
C        0.829585549   0.676957056  -0.010838853
C        0.078918294   0.923839897   0.010287476
C        0.329521793   0.924390658   0.019321792
C        0.581776709   0.928866460   0.022650605
C        0.832648174   0.928210559  -0.004049874
O        0.554690538   0.724676878   0.118296736
O        0.490064651   0.495049710   0.014800767
K_POINTS automatic 
  4 4 1   0 0 0 

