 &CONTROL
                 calculation = 'relax' ,
                      outdir = './tmp/' ,
                  pseudo_dir = '/home/deleted/pseudo_psl' ,
                      prefix = 'GF_ip' ,
                   verbosity = 'high' ,
               etot_conv_thr = 1.0D-5 ,
               forc_conv_thr = 4.0D-4 ,
                       nstep = 1000 ,
                    dipfield = .true. ,
 /
 &SYSTEM
                       ibrav = 4,
                           A = 9.88 ,
                           C = 15 ,
                         nat = 33,
                        ntyp = 3,
                     ecutwfc = 40.424239707 ,
                     ecutrho = 404.24239707 ,
                 occupations = 'smearing' ,
                     degauss = 0.01 ,
				   input_dft = 'vdW-DF' ,
 /
 &ELECTRONS
            electron_maxstep = 50001,
                    conv_thr = 1.0D-6 ,
                 mixing_mode = 'local-TF' ,
                 mixing_beta = 0.5 ,
 /
 &IONS
                ion_dynamics = 'bfgs' ,
 /
ATOMIC_SPECIES
    C   12.01100  C.revpbe-n-kjpaw_psl.0.1.UPF 
    F   18.99800  F.revpbe-n-kjpaw_psl.0.1.UPF 
    O   15.99940  O.revpbe-n-kjpaw_psl.0.1.UPF 
ATOMIC_POSITIONS crystal 
C        0.005630166   0.009963223   0.001070873
C        0.251617569   0.005362825   0.007573752
C        0.502823851   0.009230954   0.008199029
C        0.755105496   0.011992803   0.000698436
C        0.007744446   0.260950370   0.001457699
C        0.089624053   0.176641152   0.004001495
C        0.256932195   0.257347510   0.005482984
C        0.333533530   0.168204742   0.007538139
C        0.499712484   0.256921441   0.005967287
C        0.586565045   0.176076312   0.004418357
C        0.753018309   0.261089071   0.002647488
C        0.838750636   0.178060168   0.000651203
C        0.004185610   0.509264019   0.002334924
C        0.093918072   0.426844426   0.002573002
C        0.266518288   0.507949129   0.007132478
C        0.348465468   0.420149812   0.005995129
C        0.570106309   0.419132290  -0.000114169
C        0.739657383   0.507855484  -0.004677750
C        0.832357301   0.426934039   0.000955509
C        0.001465966   0.757538096   0.001746251
C        0.086007589   0.674615192   0.003600270
C        0.252958895   0.757903468   0.007619039
C        0.339091664   0.676120060   0.016354109
C        0.495782539   0.767395633   0.035360939
F        0.633853528   0.694280566  -0.077589097
C        0.768079129   0.768531344  -0.027575574
C        0.835125748   0.676500493  -0.009164031
C        0.085152924   0.923365843   0.002915012
C        0.336324932   0.923637475   0.009599073
C        0.587820724   0.926054058   0.015245113
C        0.839372568   0.929391262  -0.008896444
O        0.473858873   0.617248388   0.164970221
O        0.355598296   0.613156493   0.201909254
K_POINTS automatic 
  4 4 1   0 0 0 

