 &CONTROL
                 calculation = 'relax' ,
                      outdir = './tmp/' ,
                  pseudo_dir = '/home/deleted/pseudo_psl' ,
                      prefix = 'GCl_op' ,
                   verbosity = 'high' ,
               etot_conv_thr = 1.0D-5 ,
               forc_conv_thr = 4.0D-4 ,
                       nstep = 1000 ,
                    dipfield = .true. ,
 /
 &SYSTEM
                       ibrav = 4,
                           A = 9.88 ,
                           C = 15 ,
                         nat = 33,
                        ntyp = 3,
                     ecutwfc = 40.424239707 ,
                     ecutrho = 404.24239707 ,
                 occupations = 'smearing' ,
                     degauss = 0.01 ,
				   input_dft = 'vdW-DF' ,
 /
 &ELECTRONS
            electron_maxstep = 50001,
                    conv_thr = 1.0D-6 ,
                 mixing_mode = 'local-TF' ,
                 mixing_beta = 0.5 ,
 /
 &IONS
                ion_dynamics = 'bfgs' ,
 /
ATOMIC_SPECIES
    C   12.01100  C.revpbe-n-kjpaw_psl.0.1.UPF 
   Cl   35.45200  Cl.revpbe-n-kjpaw_psl.0.3.0.UPF 
    O   15.99940  O.revpbe-n-kjpaw_psl.0.1.UPF 
ATOMIC_POSITIONS crystal 
C        0.007496655   0.014458660  -0.001796043
C        0.253324741   0.008395481  -0.009457135
C        0.505235560   0.014674261  -0.000722427
C        0.758851027   0.019480681   0.016920661
C        0.009180892   0.265089142  -0.000896553
C        0.090955688   0.180704433  -0.005320863
C        0.258172487   0.260745285  -0.010181721
C        0.334975697   0.171354238  -0.011398017
C        0.501117468   0.260687121  -0.009404190
C        0.588540494   0.180922473  -0.004674592
C        0.754769553   0.265251341  -0.000466582
C        0.840831642   0.183054520   0.005183829
C        0.005816547   0.512784398  -0.002331322
C        0.095188743   0.430523570  -0.002096617
C        0.268742766   0.511357636  -0.000689089
C        0.349404726   0.422723750  -0.007434141
C        0.571593113   0.422737663  -0.006137361
C        0.741234093   0.511396594  -0.000695154
C        0.834198334   0.430705385  -0.001871372
C        0.002835512   0.760527582  -0.004447752
C        0.088153108   0.677655401  -0.006225282
C        0.256299041   0.760745305  -0.004279615
C        0.342964070   0.679723602   0.007013749
C        0.500452092   0.774695923   0.028410215
Cl       0.593482549   0.692155627   0.092716687
C        0.769975706   0.773881533   0.024310325
C        0.834911332   0.679848379   0.005965713
C        0.086213445   0.926591158  -0.006118997
C        0.338762098   0.926853121  -0.005448728
C        0.590511070   0.936177282   0.016736229
C        0.843401990   0.935801317   0.014750985
O        0.383160278   0.461685726   0.226329578
O        0.359987911   0.568931838   0.192758716
K_POINTS automatic 
  4 4 1   0 0 0 

