 &CONTROL
                 calculation = 'bands' ,
                      outdir = './tmp/' ,
                  pseudo_dir = '/home/deleted/pseudo_psl' ,
                      prefix = 'GF_ip' ,
                   verbosity = 'high' ,
               etot_conv_thr = 1.0D-5 ,
               forc_conv_thr = 4.0D-4 ,
                       nstep = 1000 ,
                    dipfield = .true. ,
 /
 &SYSTEM
                       ibrav = 4,
                           A = 9.88 ,
                           C = 15 ,
                         nat = 34,
                        ntyp = 4,
                     ecutwfc = 40.424239707 ,
                     ecutrho = 404.24239707 ,
                 occupations = 'tetrahedra' ,
                     degauss = 0.01 ,
				   input_dft = 'vdW-DF' ,
 /
 &ELECTRONS
            electron_maxstep = 50001,
                    conv_thr = 1.0D-6 ,
                 mixing_mode = 'local-TF' ,
                 mixing_beta = 0.5 ,
 /
ATOMIC_SPECIES
    C   12.01100  C.revpbe-n-kjpaw_psl.0.1.UPF 
    F   18.99800  F.revpbe-n-kjpaw_psl.0.1.UPF 
    O   15.99940  O.revpbe-n-kjpaw_psl.0.1.UPF 
    H   1.008000  H.revpbe-kjpaw_psl.0.1.UPF
ATOMIC_POSITIONS crystal 
C        0.004082805  -0.007603053   0.015957844
C        0.250042577  -0.011505203   0.011248731
C        0.501633816  -0.008919933   0.003779045
C        0.755326185  -0.008322636   0.004988792
C        0.004944665   0.241866629   0.008427660
C        0.088401896   0.158816356   0.012174076
C        0.254178357   0.238139287   0.018485949
C        0.333323203   0.154703171   0.013637550
C        0.502208172   0.242261148   0.009788920
C        0.586679724   0.158775423   0.007329645
C        0.752282872   0.242037689   0.003600406
C        0.838825923   0.159256970   0.004004619
C        0.002470875   0.491421930   0.003210989
C        0.091725034   0.410198847   0.002897560
C        0.258851293   0.492894206   0.000229941
C        0.344034770   0.407335352   0.035561343
C        0.576334009   0.404186344   0.008765610
C        0.744381430   0.490872386   0.014903481
C        0.833404137   0.408340384   0.006256698
C       -0.000032740   0.738770877   0.015587506
C        0.084908728   0.656976843   0.005769598
C        0.251512656   0.741017903   0.000280484
C        0.335783105   0.658363375  -0.010376615
C        0.497112295   0.750689425  -0.027452972
F        0.567307236   0.677476688  -0.067620890
C        0.764372510   0.749184618   0.053821494
C        0.835974083   0.656963331   0.025417087
C        0.085604402   0.907081532   0.016881213
C        0.335327937   0.906867017   0.004119643
C        0.586203691   0.909409024  -0.006618550
C        0.838544081   0.912066501   0.020548526
O        0.655244476   0.700294949   0.109043529
O        0.378092318   0.439977494   0.125940000
H        0.477799588   0.540270569   0.131581572
K_POINTS crystal_b 
4
0.0000000000    0.0000000000    0.0000000000 17
0.0000000000    0.5000000000    0.0000000000 10
0.3333333333    0.3333333333    0.0000000000 20
0.0000000000    0.0000000000    0.0000000000 1

