 &CONTROL
                 calculation = 'bands' ,
                      outdir = './tmp/' ,
                  pseudo_dir = '/home/deleted/pseudo_psl' ,
                      prefix = 'GF_ip' ,
                   verbosity = 'high' ,
               forc_conv_thr = 4.0D-4 ,
                       nstep = 1000 ,
                    dipfield = .true. ,
 /
 &SYSTEM
                       ibrav = 4,
                           A = 9.88 ,
                           C = 15 ,
                         nat = 34,
                        ntyp = 4,
                     ecutwfc = 40.424239707 ,
                     ecutrho = 404.24239707 ,
                 occupations = 'tetrahedra' ,
                     degauss = 0.01 ,
				   input_dft = 'vdW-DF' ,
    nspin = 2 ,
    starting_magnetization(1) = 0.5,
    starting_magnetization(2) = 0.5,
    starting_magnetization(3) = 0.5,
 /
 &ELECTRONS
            electron_maxstep = 50001,
                    conv_thr = 1.0D-6 ,
                 mixing_mode = 'local-TF' ,
                 mixing_beta = 0.5 ,
    diagonalization = 'cg' ,
 /
ATOMIC_SPECIES
    C   12.01100  C.revpbe-n-kjpaw_psl.0.1.UPF 
    F   18.99800  F.revpbe-n-kjpaw_psl.0.1.UPF 
    O   15.99940  O.revpbe-n-kjpaw_psl.0.1.UPF 
    H   1.008000  H.revpbe-kjpaw_psl.0.1.UPF
ATOMIC_POSITIONS (crystal)
C       -0.006261304  -0.002864387   0.006962984
C        0.240672852  -0.010371332   0.003721468
C        0.493195662  -0.002964281   0.003660024
C        0.748101769   0.003319406   0.006995333
C       -0.002644637   0.248915192   0.010295381
C        0.078619869   0.163725560   0.008757155
C        0.246013824   0.242979603   0.008171910
C        0.322346276   0.152856052   0.003509815
C        0.487394612   0.241012905   0.004114300
C        0.575611133   0.163168190   0.003429355
C        0.742280766   0.248607275   0.007938121
C        0.829898402   0.168268541   0.008408865
C       -0.006521525   0.495723718   0.015164665
C        0.084119221   0.415150161   0.013716337
C        0.258824537   0.494835802   0.015514308
C        0.339113156   0.404367047   0.012551832
C        0.557501617   0.403885832   0.010746099
C        0.724040635   0.490455228   0.015937720
C        0.820170012   0.413323679   0.013028261
C       -0.006995189   0.745069260   0.014387967
C        0.076730108   0.661989606   0.013725031
C        0.245374431   0.743178510   0.010525513
C        0.334275734   0.663216598   0.016073273
C        0.497237130   0.758299623   0.019914281
F        0.695649633   0.709347495  -0.094789616
C        0.742060237   0.750830898  -0.005507622
C        0.817797496   0.663731878   0.033691736
C        0.074066930   0.907745498   0.007144131
C        0.326698211   0.908888095   0.005503635
C        0.579953102   0.918855828   0.008753343
C        0.830841303   0.922189476   0.004609111
O        0.585189438   0.684770433   0.042093047
O        0.608088754   0.700705545   0.143081495
H        0.806069183   0.678329855   0.106612587
K_POINTS automatic 
  20 20 1   0 0 0 

