 &CONTROL
                 calculation = 'relax' ,
                      outdir = './tmp/' ,
                  pseudo_dir = '/home/deleted/pseudo_psl' ,
                      prefix = 'GBr_ip' ,
                   verbosity = 'high' ,
               etot_conv_thr = 1.0D-5 ,
               forc_conv_thr = 4.0D-4 ,
                       nstep = 1000 ,
                    dipfield = .true. ,
 /
 &SYSTEM
                       ibrav = 4,
                           A = 9.88 ,
                           C = 15 ,
                         nat = 34,
                        ntyp = 4,
                     ecutwfc = 40.424239707 ,
                     ecutrho = 404.24239707 ,
                 occupations = 'smearing' ,
                     degauss = 0.01 ,
				   input_dft = 'vdW-DF' ,
    nspin = 2 ,
    starting_magnetization(1) = 0.5,
    starting_magnetization(2) = 0.5,
    starting_magnetization(3) = 0.5,
	starting_magnetization(4) = 0.5,
 /
 &ELECTRONS
            electron_maxstep = 50001,
                    conv_thr = 1.0D-6 ,
                 mixing_mode = 'local-TF' ,
                 mixing_beta = 0.5 ,
 /
 &IONS
                ion_dynamics = 'bfgs' ,
 /
ATOMIC_SPECIES
    C   12.01100  C.revpbe-n-kjpaw_psl.0.1.UPF 
   Br   79.90350  Br.revpbe-n-kjpaw_psl.0.2.UPF 
    O   15.99940  O.revpbe-n-kjpaw_psl.0.1.UPF 
    H   1.008000  H.revpbe-kjpaw_psl.0.1.UPF
ATOMIC_POSITIONS (crystal)
C        0.002066231   0.002465618   0.002251511
C        0.254559195   0.009118390   0.005804053
C        0.500399388   0.002465618   0.002251511
C        0.748620668  -0.002758664  -0.004367068
C       -0.001753891   0.249457051   0.007800585
C        0.083908022   0.169568542   0.002245194
C        0.251505157   0.256472432  -0.006011043
C        0.337393271   0.174786544  -0.004366545
C        0.504967276   0.256472432  -0.006011043
C        0.585660519   0.169568542   0.002245194
C        0.751210942   0.249457051   0.007800585
C        0.831461995   0.162923990   0.005793454
C        0.001011889   0.502023779   0.018737525
C        0.078909530   0.416170196   0.012902080
C        0.241663438   0.501014400   0.000456606
C        0.317877673   0.419552836  -0.014682030
C        0.601675161   0.419552836  -0.014682030
C        0.759350962   0.501014400   0.000456606
C        0.837260665   0.416170196   0.012902080
C        0.007109205   0.755910650   0.012910915
C        0.085047032   0.670094065   0.018741145
C        0.248801446   0.755910650   0.012910915
C        0.326677077   0.671024306   0.000460180
C        0.484349960   0.752441272  -0.014679046
Br       0.542986155   0.585972310  -0.040394219
C        0.768091311   0.752441272  -0.014679046
C        0.844347228   0.671024306   0.000460180
C        0.087763591   0.922613076   0.007812815
C        0.334849484   0.922613076   0.007812815
C        0.581058089   0.915529143  -0.006005859
C        0.834471053   0.915529143  -0.006005859
O        0.606620612   0.586008914   0.194563921
O        0.479388301   0.586008914   0.194563921
H        0.543004457   0.737830775   0.1945795
K_POINTS automatic 
  4 4 1   0 0 0 

