 &CONTROL
                 calculation = 'scf' ,
                      outdir = './tmp/' ,
                  pseudo_dir = '/home/deleted/pseudo_psl' ,
                      prefix = 'GBr_ip' ,
                   verbosity = 'high' ,
               etot_conv_thr = 1.0D-5 ,
               forc_conv_thr = 4.0D-4 ,
                       nstep = 1000 ,
                    dipfield = .true. ,
 /
 &SYSTEM
                       ibrav = 4,
                           A = 9.88 ,
                           C = 15 ,
                         nat = 34,
                        ntyp = 4,
                     ecutwfc = 40.424239707 ,
                     ecutrho = 404.24239707 ,
                 occupations = 'smearing' ,
                     degauss = 0.01 ,
				   input_dft = 'vdW-DF' ,
    nspin = 2 ,
    starting_magnetization(1) = 0.5,
    starting_magnetization(2) = 0.5,
    starting_magnetization(3) = 0.5,
 /
 &ELECTRONS
            electron_maxstep = 50001,
                    conv_thr = 1.0D-6 ,
                 mixing_mode = 'local-TF' ,
                 mixing_beta = 0.5 ,
 /
ATOMIC_SPECIES
    C   12.01100  C.revpbe-n-kjpaw_psl.0.1.UPF 
   Br   79.90350  Br.revpbe-n-kjpaw_psl.0.2.UPF 
    O   15.99940  O.revpbe-n-kjpaw_psl.0.1.UPF 
    H   1.008000  H.revpbe-kjpaw_psl.0.1.UPF
ATOMIC_POSITIONS (crystal)
C        0.005601333   0.003732142   0.001868021
C        0.258183900   0.010578543   0.004578265
C        0.503915289   0.003694720   0.001008589
C        0.752049690  -0.001681985  -0.004794808
C        0.001772587   0.250704935   0.006494142
C        0.087562443   0.170914795   0.001438855
C        0.255282748   0.258120010  -0.006396974
C        0.341041291   0.176372266  -0.004777202
C        0.508565931   0.258149175  -0.005893549
C        0.589137641   0.170896917   0.001420490
C        0.754704313   0.250680173   0.006746423
C        0.834933809   0.164099613   0.004585403
C        0.004601002   0.503242349   0.017002131
C        0.082405191   0.417355991   0.011094807
C        0.245226045   0.502335024  -0.000627365
C        0.322026725   0.421353422  -0.014416455
C        0.605114996   0.421518993  -0.012732747
C        0.762778238   0.502358242   0.001545157
C        0.840787980   0.417274768   0.012133063
C        0.010818074   0.757307219   0.012282849
C        0.088653480   0.671304018   0.016985730
C        0.252331564   0.757230992   0.010911236
C        0.330185447   0.672228048  -0.000714399
C        0.487984099   0.753136538  -0.014554421
Br       0.546735913   0.587046706  -0.038854529
C        0.770813546   0.753045548  -0.012417968
C        0.847746802   0.672262106   0.001682651
C        0.091389631   0.923953905   0.007021415
C        0.338363559   0.923899279   0.006193825
C        0.584486199   0.916445545  -0.006636961
C        0.837778016   0.916484128  -0.005657278
O        0.537055877   0.555027228   0.158350730
O        0.451778921   0.616403944   0.200740348
H        0.530500812   0.698972762   0.238970029
K_POINTS automatic 
  16 16 1   0 0 0 

