 &CONTROL
                 calculation = 'relax' ,
                      outdir = './tmp/' ,
                  pseudo_dir = '/home/deleted/pseudo_psl' ,
                      prefix = 'GCl_ip' ,
                   verbosity = 'high' ,
               etot_conv_thr = 1.0D-5 ,
               forc_conv_thr = 4.0D-4 ,
                       nstep = 1000 ,
                    dipfield = .true. ,
 /
 &SYSTEM
                       ibrav = 4,
                           A = 9.88 ,
                           C = 15 ,
                         nat = 34,
                        ntyp = 4,
                     ecutwfc = 40.424239707 ,
                     ecutrho = 404.24239707 ,
                 occupations = 'smearing' ,
                     degauss = 0.01 ,
				   input_dft = 'vdW-DF' ,
 /
 &ELECTRONS
            electron_maxstep = 50001,
                    conv_thr = 1.0D-6 ,
                 mixing_mode = 'local-TF' ,
                 mixing_beta = 0.5 ,
 /
 &IONS
                ion_dynamics = 'bfgs' ,
 /
ATOMIC_SPECIES
    C   12.01100  C.revpbe-n-kjpaw_psl.0.1.UPF 
   Cl   35.45200  Cl.revpbe-n-kjpaw_psl.0.3.0.UPF 
    O   15.99940  O.revpbe-n-kjpaw_psl.0.1.UPF 
    H   1.008000  H.revpbe-kjpaw_psl.0.1.UPF
ATOMIC_POSITIONS crystal 
C       -0.008712144   0.014848515   0.004942996
C        0.238703984   0.011878057  -0.008117812
C        0.488040475   0.014231696   0.005644982
C        0.742270919   0.019561833   0.012029044
C       -0.006349555   0.265249173   0.003164389
C        0.074424981   0.179745597  -0.004764332
C        0.238653032   0.259212668  -0.023607299
C        0.323600606   0.176659075  -0.022119771
C        0.492334558   0.260502576  -0.016357309
C        0.572580523   0.179411720   0.005527937
C        0.740647569   0.264979256   0.010675251
C        0.826152204   0.183827281   0.009462194
C       -0.007386008   0.512591635   0.010688594
C        0.078944949   0.430898614   0.005115749
C        0.247470100   0.514541110  -0.006387489
C        0.310869688   0.422081205  -0.033354027
C        0.588913664   0.422011102  -0.027273234
C        0.737471018   0.513133947   0.015689102
C        0.826225479   0.429585677   0.012332735
C       -0.011831532   0.763744499   0.010621713
C        0.073437903   0.679322367   0.007365559
C        0.240643064   0.762014796   0.001827816
C        0.331095532   0.682220016   0.001187644
C        0.495993139   0.772572558   0.012475135
Cl       0.495788826   0.502212677  -0.092106919
C        0.743178277   0.773063666   0.021115406
C        0.820133364   0.684143768   0.019912332
C        0.072123978   0.929324932   0.002057514
C        0.321647223   0.928325781  -0.000669455
C        0.575320199   0.935887836   0.010818644
C        0.825474290   0.936112964   0.014021304
O        0.581021778   0.699734364   0.033045875
O        0.691584344   0.497095841   0.140936778
H        0.803353261   0.565777223   0.158203996
K_POINTS automatic 
  4 4 1   0 0 0 

