 &CONTROL
                 calculation = 'relax' ,
                      outdir = './tmp/' ,
                  pseudo_dir = '/home/deleted/pseudo_psl' ,
                      prefix = 'GCl_ip' ,
                   verbosity = 'high' ,
               etot_conv_thr = 1.0D-5 ,
               forc_conv_thr = 4.0D-4 ,
                       nstep = 1000 ,
                    dipfield = .true. ,
 /
 &SYSTEM
                       ibrav = 4,
                           A = 9.88 ,
                           C = 15 ,
                         nat = 34,
                        ntyp = 4,
                     ecutwfc = 40.424239707 ,
                     ecutrho = 404.24239707 ,
                 occupations = 'smearing' ,
                     degauss = 0.01 ,
				   input_dft = 'vdW-DF' ,
 /
 &ELECTRONS
            electron_maxstep = 50001,
                    conv_thr = 1.0D-6 ,
                 mixing_mode = 'local-TF' ,
                 mixing_beta = 0.5 ,
 /
 &IONS
                ion_dynamics = 'bfgs' ,
 /
ATOMIC_SPECIES
    C   12.01100  C.revpbe-n-kjpaw_psl.0.1.UPF 
   Cl   35.45200  Cl.revpbe-n-kjpaw_psl.0.3.0.UPF 
    O   15.99940  O.revpbe-n-kjpaw_psl.0.1.UPF 
    H   1.008000  H.revpbe-kjpaw_psl.0.1.UPF
ATOMIC_POSITIONS crystal 
C       -0.000359629   0.007363401   0.008963022
C        0.248831158   0.006002676  -0.003450858
C        0.499387791   0.007414048   0.009078828
C        0.751541356   0.011449996   0.021614075
C        0.000619076   0.258646482   0.009931025
C        0.081642876   0.173210429   0.003953607
C        0.244928130   0.252237407  -0.015711803
C        0.330845996   0.170046859  -0.016749468
C        0.498956759   0.252366697  -0.015425602
C        0.583213981   0.173301046   0.004195579
C        0.749695521   0.258691993   0.010025449
C        0.833822190   0.176011879   0.016009362
C        0.000251547   0.508743977   0.010055494
C        0.083614152   0.425068161   0.007662277
C        0.250608135   0.507913667  -0.004390595
C        0.313640022   0.413566917  -0.027799811
C        0.591613267   0.413669655  -0.027583279
C        0.749082743   0.507984157  -0.004350586
C        0.833216423   0.425118710   0.007674384
C       -0.002174816   0.757167010   0.004900945
C        0.083081147   0.674443646   0.004636218
C        0.251042526   0.757165315   0.004930256
C        0.337922730   0.675060295   0.006018071
C        0.502063462   0.763859459   0.019119042
Cl       0.491027845   0.490149588  -0.092013678
C        0.753470053   0.763882903   0.019063352
C        0.828869495   0.675123592   0.005952783
C        0.081908994   0.923458509   0.003576920
C        0.333224019   0.923469017   0.003627700
C        0.584816319   0.927141628   0.019038700
C        0.833962861   0.927146726   0.018964099
O        0.588895679   0.686098746   0.041352306
O        0.577740415   0.663391751   0.147132189
H        0.672817467   0.630137682   0.094105037
K_POINTS automatic 
  4 4 1   0 0 0 

