 &CONTROL
                 calculation = 'nscf' ,
                      outdir = './tmp/' ,
                  pseudo_dir = '/home/deleted/pseudo_psl' ,
                      prefix = 'B1_op' ,
                    dipfield = .true. ,
                   verbosity = 'high',
                       nstep = 1000,
               forc_conv_thr = 4.0D-4,
               etot_conv_thr = 1.0D-5
 /
 &SYSTEM
                       ibrav = 4,
                           A = 9.88 ,
                           C = 15 ,
                         nat = 31, 
                        ntyp = 2,
                     ecutwfc = 40.424239707 ,
                     ecutrho = 404.24239707 ,
                 occupations = 'tetrahedra' ,
                     degauss = 0.01 ,
				   input_dft = 'vdW-DF' ,
    nspin = 2 ,
    starting_magnetization(1) = 0.5,
	starting_magnetization(2) = 0.5,
 /
 &ELECTRONS
            electron_maxstep = 50001,
                    conv_thr = 1.0D-6 ,
                 mixing_mode = 'local-TF' ,
                 mixing_beta = 0.5 ,
 /
ATOMIC_SPECIES
    C   12.01100  C.revpbe-n-kjpaw_psl.0.1.UPF
    O   15.99940  O.revpbe-n-kjpaw_psl.0.1.UPF 
ATOMIC_POSITIONS crystal 
C        0.001714357   0.000798509   0.003119389
C        0.245816237  -0.008367525   0.003483030
C        0.499084152   0.000798509   0.003119389
C        0.754172885   0.008345770   0.002912191
C        0.004853448   0.253047930   0.003006792
C        0.085801384   0.167234837   0.003123861
C        0.252487876   0.245195565   0.003249532
C        0.327120534   0.154241069   0.003339961
C        0.492707689   0.245195565   0.003249532
C        0.581433452   0.167234837   0.003123861
C        0.748194481   0.253047930   0.003006792
C        0.836226586   0.172453173   0.002906794
C       -0.000217299   0.499565402   0.003297952
C        0.092420207   0.418170602   0.003182995
C        0.268521232   0.498022821   0.003304960
C        0.350998027   0.407314544   0.003239233
C        0.556316516   0.407314544   0.003239233
C        0.729501588   0.498022821   0.003304960
C        0.825750394   0.418170602   0.003182995
C       -0.006353972   0.745582341   0.003480221
C        0.082016765   0.664033531   0.003519917
C        0.251936313   0.745582341   0.003480221
C        0.342513277   0.666218079   0.003363760
C        0.507891964   0.760130250   0.003182486
O        0.591838512   0.683677025   0.003252952
C        0.752238286   0.760130250   0.003182486
C        0.823704801   0.666218079   0.003363760
C        0.078823382   0.911352499   0.003415052
C        0.332529116   0.911352499   0.003415052
C        0.587223800   0.923291138   0.002975321
C        0.836067336   0.923291138   0.002975321
K_POINTS automatic 
  20 20 1   0 0 0 

