 &CONTROL
                 calculation = 'bands' ,
                      outdir = './tmp/' ,
                  pseudo_dir = '/home/deleted/pseudo_psl' ,
                      prefix = 'GI_op' ,
                   verbosity = 'high' ,
               etot_conv_thr = 1.0D-5 ,
               forc_conv_thr = 4.0D-4 ,
                       nstep = 1000 ,
                    dipfield = .true. ,
 /
 &SYSTEM
                       ibrav = 4,
                           A = 9.88 ,
                           C = 15 ,
                         nat = 33,
                        ntyp = 3,
                     ecutwfc = 40.424239707 ,
                     ecutrho = 404.24239707 ,
                 occupations = 'tetrahedra' ,
                     degauss = 0.01 ,
				   input_dft = 'vdW-DF' ,
    nspin = 2 ,
    starting_magnetization(1) = 0.5,
    starting_magnetization(2) = 0.5,
    starting_magnetization(3) = 0.5,
 /
 &ELECTRONS
            electron_maxstep = 50001,
                    conv_thr = 1.0D-6 ,
                 mixing_mode = 'local-TF' ,
                 mixing_beta = 0.5 ,
 /
ATOMIC_SPECIES
    C   12.01100  C.revpbe-n-kjpaw_psl.0.1.UPF 
    I  126.90400  I.revpbe-n-kjpaw_psl.0.2.UPF 
    O   15.99940  O.revpbe-n-kjpaw_psl.0.1.UPF 
ATOMIC_POSITIONS (crystal)
C        0.002456814  -0.012137924  -0.002378266
C        0.248741459  -0.022454691  -0.003040488
C        0.505138852  -0.012130483  -0.004556337
C        0.761330386   0.003123201  -0.003821894
C        0.011358030   0.244459200  -0.001914210
C        0.088783076   0.155091086  -0.001723595
C        0.255755966   0.231805630  -0.001564323
C        0.329840135   0.139806482  -0.002098633
C        0.495862386   0.231720676  -0.002337513
C        0.586075364   0.155002556  -0.003159895
C        0.752787511   0.244420188  -0.002683579
C        0.842527770   0.165383004  -0.002761845
C        0.004884876   0.489909366  -0.002715180
C        0.099859683   0.409262178  -0.002286912
C        0.277307479   0.487146403  -0.002853008
C        0.355493595   0.393941494  -0.001970342
C        0.558228629   0.393844969  -0.002270666
C        0.729538650   0.487039959  -0.002605264
C        0.829168897   0.409214223  -0.002410765
C       -0.008571467   0.733687423  -0.003384640
C        0.086558208   0.653099177  -0.003667470
C        0.262084747   0.733681498  -0.004592079
C        0.361523107   0.655918351  -0.004546534
C        0.532900468   0.749151708  -0.004851565
I        0.527648250   0.798055910   0.241652595
C        0.735856147   0.749145433  -0.003613616
C        0.814055059   0.655938060  -0.003213022
C        0.079813046   0.898477995  -0.002912297
C        0.338481775   0.898464633  -0.004409942
C        0.595427802   0.911277472  -0.005165651
C        0.835454542   0.911227794  -0.003241190
O        0.673639734   1.005249777   0.207714309
O        0.320858264   0.739357081   0.208384368
K_POINTS automatic 
  20 20 1   0 0 0 

