 &CONTROL
                 calculation = 'bands' ,
                      outdir = './tmp/' ,
                  pseudo_dir = '/home/deleted/pseudo_psl' ,
                      prefix = 'GCl_ip' ,
                   verbosity = 'high' ,
               etot_conv_thr = 1.0D-5 ,
               forc_conv_thr = 4.0D-4 ,
                       nstep = 1000 ,
                    dipfield = .true. ,
 /
 &SYSTEM
                       ibrav = 4,
                           A = 9.88 ,
                           C = 15 ,
                         nat = 33,
                        ntyp = 3,
                     ecutwfc = 40.424239707 ,
                     ecutrho = 404.24239707 ,
                 occupations = 'tetrahedra' ,
                     degauss = 0.01 ,
				   input_dft = 'vdW-DF' ,
 /
 &ELECTRONS
            electron_maxstep = 50001,
                    conv_thr = 1.0D-6 ,
                 mixing_mode = 'local-TF' ,
                 mixing_beta = 0.5 ,
 /
ATOMIC_SPECIES
    C   12.01100  C.revpbe-n-kjpaw_psl.0.1.UPF 
   Cl   35.45200  Cl.revpbe-n-kjpaw_psl.0.3.0.UPF 
    O   15.99940  O.revpbe-n-kjpaw_psl.0.1.UPF 
ATOMIC_POSITIONS crystal 
C        0.013519975   0.011892415  -0.005071697
C        0.259275241   0.005826059  -0.013216999
C        0.510999920   0.011726894  -0.004238764
C        0.764477697   0.016535733   0.013747399
C        0.014576354   0.262331031  -0.004421229
C        0.096650305   0.178138674  -0.008567014
C        0.263800105   0.258100315  -0.012814847
C        0.340692712   0.168955357  -0.014768839
C        0.507001895   0.258256317  -0.012694218
C        0.594171292   0.178063115  -0.008115151
C        0.760326474   0.262327365  -0.003873114
C        0.846400520   0.180157961   0.001673411
C        0.011400918   0.510069028  -0.005819772
C        0.100524701   0.427793005  -0.005667649
C        0.273778465   0.508636552  -0.004021391
C        0.354624577   0.420293238  -0.008857735
C        0.577830621   0.420219882  -0.008961278
C        0.747398494   0.508714817  -0.002879130
C        0.839976312   0.427871261  -0.004847548
C        0.008994232   0.757945250  -0.007761262
C        0.093913079   0.674910071  -0.009900763
C        0.261958338   0.757997866  -0.007887812
C        0.348131381   0.676656758   0.003802158
C        0.505911741   0.771311329   0.024754529
Cl       0.600771220   0.691116758   0.089782045
C        0.777331602   0.771743356   0.022492850
C        0.841338368   0.677113959   0.003703493
C        0.092302308   0.924108372  -0.009545047
C        0.344461619   0.923995947  -0.009279690
C        0.596206955   0.933215189   0.013452900
C        0.849541605   0.933246018   0.011947322
O        0.252544678   0.601131804   0.189779150
O        0.367471025   0.574931546   0.198075687
K_POINTS crystal_b 
4
0.0000000000    0.0000000000    0.0000000000 17
0.0000000000    0.5000000000    0.0000000000 10
0.3333333333    0.3333333333    0.0000000000 20
0.0000000000    0.0000000000    0.0000000000 1

