 &CONTROL
                 calculation = 'bands' ,
                      outdir = './tmp/' ,
                  pseudo_dir = '/home/deleted/pseudo_psl' ,
                      prefix = 'PG_tc' ,
                    dipfield = .true. ,
                   verbosity = 'high',
                       nstep = 1000,
               forc_conv_thr = 4.0D-4,
               etot_conv_thr = 1.0D-5
 /
 &SYSTEM
                       ibrav = 4,
                           A = 9.88 ,
                           C = 15 ,
                         nat = 34,
                        ntyp = 2,
                     ecutwfc = 40.424239707 ,
                     ecutrho = 404.24239707 ,
                 occupations = 'tetrahedra' ,
                     degauss = 0.01 ,
				   input_dft = 'vdW-DF' ,
    nspin = 2 ,
    starting_magnetization(1) = 0.5,
	starting_magnetization(2) = 0.5,
 /
 &ELECTRONS
            electron_maxstep = 50001,
                    conv_thr = 1.0D-6 ,
                 mixing_mode = 'local-TF' ,
                 mixing_beta = 0.5 ,
 /
ATOMIC_SPECIES
    C   12.01100  C.revpbe-n-kjpaw_psl.0.1.UPF 
    O   15.99940  O.revpbe-n-kjpaw_psl.0.1.UPF 
ATOMIC_POSITIONS crystal 
C       -0.011271912  -0.022517908  -0.006646039
C        0.238754004  -0.022517908  -0.006646039
C        0.488758521  -0.022491786  -0.007265409
C        0.738749692  -0.022491786  -0.007265409
C       -0.011297354   0.227465440  -0.007201852
C        0.072060288   0.144147932  -0.006765034
C        0.238742577   0.227485154  -0.006634583
C        0.322087643   0.144147932  -0.006765034
C        0.488762794   0.227465440  -0.007201852
C        0.572078469   0.144133791  -0.007797888
C        0.738734790   0.227469579  -0.008062607
C        0.822055322   0.144133791  -0.007797888
C       -0.011272319   0.477472790  -0.007039195
C        0.072060636   0.394140688  -0.006952766
C        0.238740574   0.477489003  -0.006568565
C        0.322074161   0.394148323  -0.006580185
C        0.488748429   0.477489003  -0.006568565
C        0.572080051   0.394140688  -0.006952766
C        0.738745109   0.477472790  -0.007039195
C        0.822066338   0.394132676  -0.007514459
C       -0.011259072   0.727481855  -0.006565049
C        0.072074283   0.644147061  -0.006634993
C        0.238749619   0.727492748  -0.006517054
C        0.322101103   0.644175136  -0.006443980
C        0.488761427   0.727522855  -0.006519941
C        0.572074033   0.644175136  -0.006443980
C        0.738743129   0.727492748  -0.006517054
C        0.822072777   0.644147061  -0.006634993
C        0.072075114   0.894150229  -0.006506518
C        0.322097650   0.894159601  -0.006735115
C        0.572078008   0.894156017  -0.007049670
C        0.822061949   0.894159601  -0.006735115
O        0.716365436   1.182730871   0.208458124
O        0.643880060   1.037760121   0.212110670
K_POINTS crystal_b 
4
0.0000000000    0.0000000000    0.0000000000 17
0.0000000000    0.5000000000    0.0000000000 10
0.3333333333    0.3333333333    0.0000000000 20
0.0000000000    0.0000000000    0.0000000000 1

