 &CONTROL
                 calculation = 'relax' ,
                      outdir = './tmp/' ,
                  pseudo_dir = '/home/deleted/pseudo_psl' ,
                      prefix = 'GF_op' ,
                   verbosity = 'high' ,
               etot_conv_thr = 1.0D-5 ,
               forc_conv_thr = 4.0D-4 ,
                       nstep = 1000 ,
                    dipfield = .true. ,
 /
 &SYSTEM
                       ibrav = 4,
                           A = 9.88 ,
                           C = 15 ,
                         nat = 34,
                        ntyp = 4,
                     ecutwfc = 40.424239707 ,
                     ecutrho = 404.24239707 ,
                 occupations = 'smearing' ,
                     degauss = 0.01 ,
				   input_dft = 'vdW-DF' ,
 /
 &ELECTRONS
            electron_maxstep = 50001,
                    conv_thr = 1.0D-6 ,
                 mixing_mode = 'local-TF' ,
                 mixing_beta = 0.5 ,
 /
 &IONS
                ion_dynamics = 'bfgs' ,
 /
ATOMIC_SPECIES
    C   12.01100  C.revpbe-n-kjpaw_psl.0.1.UPF 
    F   18.99800  F.revpbe-n-kjpaw_psl.0.1.UPF 
    O   15.99940  O.revpbe-n-kjpaw_psl.0.1.UPF 
	H   1.00800   H.revpbe-kjpaw_psl.0.1.UPF
ATOMIC_POSITIONS crystal 
C       -0.015376380  -0.012884870   0.003106139
C        0.231270098  -0.017846737   0.009428833
C        0.483018131  -0.012447915   0.014328478
C        0.732511351  -0.011244147   0.006652941
C       -0.015427656   0.237669505   0.002952424
C        0.067314064   0.153792092   0.005793352
C        0.235176199   0.235542955   0.007367779
C        0.312843966   0.146283407   0.008683680
C        0.478462773   0.234679414   0.006661070
C        0.564840847   0.153801025   0.007611416
C        0.731015413   0.237949988   0.005220708
C        0.816386696   0.155486151   0.003960945
C       -0.018369124   0.485540806   0.003222685
C        0.070348613   0.403419899   0.004719532
C        0.244981510   0.486790412   0.011490082
C        0.326546946   0.397609337   0.007749231
C        0.549551815   0.397440996   0.001598938
C        0.718575820   0.485724368  -0.004393119
C        0.810410696   0.403888937   0.001314923
C       -0.019663655   0.734760960   0.001812565
C        0.064545829   0.651387391   0.006003400
C        0.232008997   0.732863593   0.013739659
C        0.316246090   0.651746711   0.022151325
C        0.480780662   0.743554850   0.051347084
F        0.606465412   0.680087854  -0.071850359
C        0.748069911   0.748390176  -0.029145954
C        0.813553711   0.654438174  -0.011440905
C        0.064202467   0.900579111   0.004341696
C        0.315567763   0.900869069   0.014484116
C        0.568804226   0.908153105   0.019862252
C        0.818699677   0.906456623  -0.005508028
O        0.851492950   0.984151867   0.170168341
O        0.537915944   0.688509218   0.103578112
H        0.760173114   0.893120671   0.195663194
K_POINTS automatic 
  4 4 1   0 0 0 

