 &CONTROL
                 calculation = 'scf' ,
                      outdir = './tmp/' ,
                  pseudo_dir = '/home/deleted/pseudo_psl' ,
                      prefix = 'GF_op' ,
                   verbosity = 'high' ,
               etot_conv_thr = 1.0D-5 ,
               forc_conv_thr = 4.0D-4 ,
                       nstep = 1000 ,
                    dipfield = .true. ,
 /
 &SYSTEM
                       ibrav = 4,
                           A = 9.88 ,
                           C = 15 ,
                         nat = 34,
                        ntyp = 4,
                     ecutwfc = 40.424239707 ,
                     ecutrho = 404.24239707 ,
                 occupations = 'smearing' ,
                     degauss = 0.01 ,
				   input_dft = 'vdW-DF' ,
 /
 &ELECTRONS
            electron_maxstep = 50001,
                    conv_thr = 1.0D-6 ,
                 mixing_mode = 'local-TF' ,
                 mixing_beta = 0.5 ,
 /
ATOMIC_SPECIES
    C   12.01100  C.revpbe-n-kjpaw_psl.0.1.UPF 
    F   18.99800  F.revpbe-n-kjpaw_psl.0.1.UPF 
    O   15.99940  O.revpbe-n-kjpaw_psl.0.1.UPF 
	H   1.00800   H.revpbe-kjpaw_psl.0.1.UPF
ATOMIC_POSITIONS crystal 
C       -0.033993192  -0.028031943   0.012350158
C        0.215586418  -0.029500793   0.014655482
C        0.467076004  -0.023838369   0.015227109
C        0.716206072  -0.022783719   0.007078586
C       -0.033351530   0.227661308   0.008161882
C        0.049133224   0.142206232   0.039568331
C        0.222491933   0.225818573   0.016289498
C        0.297550939   0.134741501   0.012937160
C        0.462429059   0.222955933   0.005802222
C        0.548642087   0.141940825   0.005487884
C        0.714799721   0.226890550   0.001257834
C        0.801258703   0.145117548   0.003561175
C       -0.035042886   0.474114820   0.000050078
C        0.053379071   0.391342957   0.004344110
C        0.228981114   0.475666188   0.012781914
C        0.311670453   0.384236420   0.009963597
C        0.532966042   0.386139230  -0.000234717
C        0.701026114   0.473990461  -0.007805005
C        0.794080027   0.392390381  -0.002665657
C       -0.036105078   0.722935428   0.000957611
C        0.048939528   0.639938507   0.004909934
C        0.214905067   0.720587120   0.015293801
C        0.299662292   0.638259226   0.023408418
C        0.465444253   0.731486167   0.052746908
F        0.592488025   0.672783626  -0.073212506
C        0.733642660   0.738455123  -0.030283299
C        0.797760566   0.643188181  -0.013907524
C        0.047130808   0.888324260   0.009089467
C        0.299626599   0.889027763   0.017280070
C        0.554484299   0.897388337   0.021271433
C        0.804395619   0.895621993  -0.004002446
O        1.035314893   1.147377882   0.139102840
O        0.522214246   0.678200088   0.105955418
H        1.088151725   1.095633192   0.165254765
K_POINTS automatic 
  16 16 1   0 0 0 