 &CONTROL
                 calculation = 'relax' ,
                      outdir = './tmp/' ,
                  pseudo_dir = '/home/deleted/pseudo_psl' ,
                      prefix = 'GF_op' ,
                   verbosity = 'high' ,
               etot_conv_thr = 1.0D-5 ,
               forc_conv_thr = 4.0D-4 ,
                       nstep = 1000 ,
                    dipfield = .true. ,
 /
 &SYSTEM
                       ibrav = 4,
                           A = 9.88 ,
                           C = 15 ,
                         nat = 34,
                        ntyp = 4,
                     ecutwfc = 40.424239707 ,
                     ecutrho = 404.24239707 ,
                 occupations = 'smearing' ,
                     degauss = 0.01 ,
				   input_dft = 'vdW-DF' ,
 /
 &ELECTRONS
            electron_maxstep = 50001,
                    conv_thr = 1.0D-6 ,
                 mixing_mode = 'local-TF' ,
                 mixing_beta = 0.5 ,
 /
 &IONS
                ion_dynamics = 'bfgs' ,
 /
ATOMIC_SPECIES
    C   12.01100  C.revpbe-n-kjpaw_psl.0.1.UPF 
    F   18.99800  F.revpbe-n-kjpaw_psl.0.1.UPF 
    O   15.99940  O.revpbe-n-kjpaw_psl.0.1.UPF 
	H   1.00800   H.revpbe-kjpaw_psl.0.1.UPF
ATOMIC_POSITIONS crystal 
C       -0.031875023  -0.025836954   0.007193892
C        0.216253280  -0.029489897   0.010436055
C        0.468137999  -0.023804641   0.012920156
C        0.718450417  -0.020515613   0.004863618
C       -0.030383174   0.227887408   0.006511120
C        0.050858470   0.141575697   0.019392961
C        0.220467023   0.224561638   0.012735605
C        0.297567444   0.134662351   0.010508634
C        0.462998307   0.222688947   0.005737253
C        0.549668404   0.142210751   0.005747795
C        0.715571042   0.227993849   0.003533248
C        0.802460229   0.146699865   0.003438757
C       -0.033167922   0.474546666   0.000661756
C        0.055678239   0.392576982   0.004644999
C        0.230511935   0.476559767   0.012086191
C        0.311151883   0.385240401   0.010122031
C        0.535320862   0.385461250   0.000445008
C        0.703298886   0.474945957  -0.008034239
C        0.795577977   0.393684677  -0.001232493
C       -0.035045556   0.723213613  -0.002346175
C        0.049925412   0.640071614   0.002628123
C        0.216577279   0.721290841   0.012116547
C        0.301461114   0.640354933   0.021881480
C        0.466666277   0.733659770   0.052074838
F        0.589662235   0.670630061  -0.072484905
C        0.732705050   0.738785273  -0.031102352
C        0.798607819   0.643900497  -0.015566227
C        0.048625243   0.888671858   0.004193283
C        0.300858567   0.889542481   0.013382563
C        0.555975135   0.898679946   0.019251459
C        0.804185639   0.896582478  -0.006725428
O        1.017934094   1.128236487   0.161657358
O        0.520682684   0.680361639   0.106973965
H        1.075577605   1.094634404   0.205029656
K_POINTS automatic 
  4 4 1   0 0 0 

