 &CONTROL
                 calculation = 'nscf' ,
                      outdir = './tmp/' ,
                  pseudo_dir = '/home/deleted/pseudo_psl' ,
                      prefix = 'GF_ip' ,
                   verbosity = 'high' ,
               etot_conv_thr = 1.0D-5 ,
               forc_conv_thr = 4.0D-4 ,
                       nstep = 1000 ,
                    dipfield = .true. ,
 /
 &SYSTEM
                       ibrav = 4,
                           A = 9.88 ,
                           C = 15 ,
                         nat = 34,
                        ntyp = 4,
                     ecutwfc = 40.424239707 ,
                     ecutrho = 404.24239707 ,
                 occupations = 'tetrahedra' ,
                     degauss = 0.01 ,
				   input_dft = 'vdW-DF' ,
    nspin = 2 ,
    starting_magnetization(1) = 0.5,
    starting_magnetization(2) = 0.5,
    starting_magnetization(3) = 0.5,
 /
 &ELECTRONS
            electron_maxstep = 50001,
                    conv_thr = 1.0D-6 ,
                 mixing_mode = 'local-TF' ,
                 mixing_beta = 0.5 ,
 /
ATOMIC_SPECIES
    C   12.01100  C.revpbe-n-kjpaw_psl.0.1.UPF 
    F   18.99800  F.revpbe-n-kjpaw_psl.0.1.UPF 
    O   15.99940  O.revpbe-n-kjpaw_psl.0.1.UPF 
    H   1.008000  H.revpbe-kjpaw_psl.0.1.UPF
ATOMIC_POSITIONS (crystal)
C        0.012927369  -0.026606521   0.018670922
C        0.257231289  -0.036808950   0.019967138
C        0.511421042  -0.027823779   0.007691646
C        0.765069185  -0.025190798   0.004297097
C        0.015559712   0.223318713   0.003754684
C        0.097815736   0.140158841   0.011134925
C        0.264524509   0.222364578   0.015396970
C        0.342462861   0.132599815   0.045155077
C        0.511267951   0.222716598   0.018291892
C        0.595888810   0.139859623   0.011648610
C        0.760739149   0.222959014   0.002158688
C        0.847112093   0.140337093   0.001847822
C        0.011909928   0.471201473  -0.000304477
C        0.102473659   0.389373032  -0.001393008
C        0.274010182   0.470434192  -0.006873281
C        0.355869334   0.380363820   0.002788642
C        0.578047466   0.381146516   0.010058799
C        0.751293608   0.472705894   0.009087571
C        0.841421836   0.389506242   0.001989367
C        0.009196807   0.717803148   0.012215794
C        0.094743316   0.636342314   0.003297765
C        0.262261244   0.719576929   0.000120481
C        0.348487509   0.639005213  -0.013765205
C        0.508371942   0.733738272  -0.029726594
F        0.582215459   0.666430822  -0.072724869
C        0.771762733   0.728665587   0.050641345
C        0.843849931   0.636999989   0.019463960
C        0.095240182   0.885508452   0.019159473
C        0.343977982   0.885244157   0.008554150
C        0.596494789   0.892544435  -0.006252263
C        0.849462406   0.894442458   0.020310663
O        0.660406121   0.673725876   0.103386747
O        0.338014145   1.126303776   0.144654934
H        0.399189947   1.234315454   0.165530672
K_POINTS automatic 
  20 20 1   0 0 0 

