 &CONTROL
                 calculation = 'scf' ,
                      outdir = './tmp/' ,
                  pseudo_dir = '/home/deleted/pseudo_psl' ,
                      prefix = 'GCl_ip' ,
                   verbosity = 'high' ,
               etot_conv_thr = 1.0D-5 ,
               forc_conv_thr = 4.0D-4 ,
                       nstep = 1000 ,
                    dipfield = .true. ,
 /
 &SYSTEM
                       ibrav = 4,
                           A = 9.88 ,
                           C = 15 ,
                         nat = 32,
                        ntyp = 3,
                     ecutwfc = 40.424239707 ,
                     ecutrho = 404.24239707 ,
                 occupations = 'smearing' ,
                     degauss = 0.01 ,
				   input_dft = 'vdW-DF' ,
    nspin = 2 ,
    starting_magnetization(1) = 0.5,
    starting_magnetization(2) = 0.5,
    starting_magnetization(3) = 0.5,
 /
 &ELECTRONS
            electron_maxstep = 50001,
                    conv_thr = 1.0D-6 ,
                 mixing_mode = 'local-TF' ,
                 mixing_beta = 0.5 ,
 /
ATOMIC_SPECIES
    C   12.01100  C.revpbe-n-kjpaw_psl.0.1.UPF 
   Cl   35.45200  Cl.revpbe-n-kjpaw_psl.0.3.0.UPF 
    O   15.99940  O.revpbe-n-kjpaw_psl.0.1.UPF 
ATOMIC_POSITIONS (crystal)
C        0.001180903   0.000794509   0.004433377
C        0.248849075  -0.002301851   0.016779752
C        0.499613605   0.000794509   0.004433377
C        0.751807665   0.003615329  -0.016250796
C        0.000623642   0.250363824   0.005257190
C        0.083185312   0.166450541   0.010226211
C        0.248444588   0.246575098   0.020744534
C        0.331183014   0.162366030   0.022806147
C        0.498130511   0.246575098   0.020744534
C        0.583265228   0.166450541   0.010226211
C        0.749740181   0.250363824   0.005257190
C        0.833903689   0.167807377  -0.002250450
C       -0.000588378   0.498823245   0.007831026
C        0.084621169   0.416181838   0.007862178
C        0.254591668   0.498246558   0.009022654
C        0.331415208   0.410690998   0.022294276
C        0.579275789   0.410690998   0.022294276
C        0.743654890   0.498246558   0.009022654
C        0.831560668   0.416181838   0.007862178
C       -0.000995108   0.748600134   0.009534867
C        0.082575959   0.665151920   0.012517226
C        0.249595242   0.748600134   0.009534867
C        0.334207972   0.665633689  -0.002321116
C        0.490825854   0.759959231  -0.026991626
Cl       0.591911832   0.683823667  -0.091470259
C        0.769133376   0.759959231  -0.026991626
C        0.831425716   0.665633689  -0.002321116
C        0.081992890   0.915116796   0.010814145
C        0.333123906   0.915116796   0.010814145
C        0.583830155   0.921832506  -0.015400792
C        0.838002350   0.921832506  -0.015400792
O        0.493244758   0.486489516   0.039085559
K_POINTS automatic 
  16 16 1   0 0 0 

