&PROJWFC
  outdir = './tmp',
  prefix = 'Br',
  filpdos = 'Br-pdos',
  ngauss = 1,
  degauss = 0.01,
  DeltaE = 0.01,
  lsym = .true.
/
