 &CONTROL
                 calculation = 'scf' ,
                      outdir = './tmp_subs/' ,
                  pseudo_dir = '/home/deleted/pseudo_psl' ,
                      prefix = 'GBr_ip-subs' ,
                   verbosity = 'high' ,
               etot_conv_thr = 1.0D-5 ,
               forc_conv_thr = 4.0D-4 ,
                       nstep = 1000 ,
                    dipfield = .true. ,
 /
 &SYSTEM
                       ibrav = 4,
                           A = 9.88 ,
                           C = 15 ,
                         nat = 31,
                        ntyp = 2,
                     ecutwfc = 40.424239707 ,
                     ecutrho = 404.24239707 ,
                 occupations = 'smearing' ,
                     degauss = 0.01 ,
				   input_dft = 'vdW-DF' ,
    nspin = 2 ,
    starting_magnetization(1) = 0.5,
    starting_magnetization(2) = 0.5,
 /
 &ELECTRONS
            electron_maxstep = 50001,
                    conv_thr = 1.0D-6 ,
                 mixing_mode = 'local-TF' ,
                 mixing_beta = 0.5 ,
 /
ATOMIC_SPECIES
    C   12.01100  C.revpbe-n-kjpaw_psl.0.1.UPF 
   Br   79.90350  Br.revpbe-n-kjpaw_psl.0.2.UPF 
ATOMIC_POSITIONS (crystal)
C       -0.002160962   0.001708577  -0.002221431
C        0.252611677   0.008060064  -0.000972106
C        0.500276873   0.007225654   0.008135540
C        0.745662627  -0.000331351   0.005096780
C       -0.003587042   0.251282001   0.006158703
C        0.078915227   0.167875220   0.003730855
C        0.245354811   0.252896614  -0.004623298
C        0.333858792   0.174158849  -0.010227131
C        0.501191941   0.258763685  -0.015102190
C        0.583684048   0.173420671  -0.003866548
C        0.749430814   0.253479486   0.000096800
C        0.829832989   0.166697961   0.003542539
C        0.000031758   0.504482058   0.008057103
C        0.078302813   0.418138520   0.013280195
C        0.244518431   0.503197224   0.016515038
C        0.312778567   0.414520269  -0.006686731
C        0.597630074   0.422384351  -0.025392193
C        0.757992696   0.505321660  -0.017838118
C        0.835714239   0.420138841  -0.002098672
C        0.006038528   0.756853666  -0.002979771
C        0.085630569   0.671700939   0.005824803
C        0.250878284   0.756152428   0.013183186
C        0.329991843   0.671524289   0.026384215
C        0.492789341   0.763411358   0.058422033
Br       0.521365887   0.565027658  -0.059269425
C        0.765217358   0.756542540  -0.030495849
C        0.842934402   0.674665920  -0.018475611
C        0.085193351   0.922597205  -0.002344553
C        0.333630287   0.924054681   0.008434009
C        0.581845099   0.923982694   0.020239533
C        0.830467085   0.915772997  -0.008706861
K_POINTS automatic 
  16 16 1   0 0 0 

