 &CONTROL
                 calculation = 'relax' ,
                      outdir = './tmp/' ,
                  pseudo_dir = '/home/deleted/pseudo_psl' ,
                      prefix = 'GBr_op' ,
                   verbosity = 'high' ,
               etot_conv_thr = 1.0D-5 ,
               forc_conv_thr = 4.0D-4 ,
                       nstep = 1000 ,
                    dipfield = .true. ,
 /
 &SYSTEM
                       ibrav = 4,
                           A = 9.88 ,
                           C = 15 ,
                         nat = 34,
                        ntyp = 4,
                     ecutwfc = 40.424239707 ,
                     ecutrho = 404.24239707 ,
                 occupations = 'smearing' ,
                     degauss = 0.01 ,
				   input_dft = 'vdW-DF' ,
    nspin = 2 ,
    starting_magnetization(1) = 0.5,
    starting_magnetization(2) = 0.5,
    starting_magnetization(3) = 0.5,
 /
 &ELECTRONS
            electron_maxstep = 50001,
                    conv_thr = 1.0D-6 ,
                 mixing_mode = 'local-TF' ,
                 mixing_beta = 0.5 ,
 /
 &IONS
                ion_dynamics = 'bfgs' ,
 /
ATOMIC_SPECIES
    C   12.01100  C.revpbe-n-kjpaw_psl.0.1.UPF 
   Br   79.90350  Br.revpbe-n-kjpaw_psl.0.2.UPF 
    O   15.99940  O.revpbe-n-kjpaw_psl.0.1.UPF 
    H   1.008000  H.revpbe-kjpaw_psl.0.1.UPF
ATOMIC_POSITIONS (crystal)
C       -0.010479446   0.019447222  -0.007019838
C        0.235113084   0.008634027  -0.005013912
C        0.489056785   0.020689598   0.003067514
C        0.749834880   0.034609827   0.000976194
C       -0.003593800   0.274421542  -0.010105725
C        0.074919315   0.186324921  -0.009219575
C        0.242644401   0.264218856  -0.009697318
C        0.316238517   0.171284864  -0.007380968
C        0.481008179   0.263066714  -0.007394925
C        0.570644200   0.186080245  -0.003418894
C        0.738113189   0.275118673  -0.005479966
C        0.828194404   0.195373659  -0.005384719
C       -0.010138289   0.519675456  -0.009760807
C        0.082935546   0.438913721  -0.011253663
C        0.260655645   0.517957031  -0.009901569
C        0.342558543   0.425253672  -0.009999658
C        0.543417347   0.426123042  -0.009193077
C        0.713975510   0.517570599  -0.008887528
C        0.813474607   0.438563570  -0.008867298
C       -0.021646731   0.764617085  -0.005996347
C        0.072012170   0.683037849  -0.006767614
C        0.246015898   0.762067760  -0.003173252
C        0.337869010   0.681846324  -0.003411826
C        0.517332446   0.774498027   0.016565121
Br       0.650362816   0.420800297   0.239274712
C        0.725316711   0.778893358  -0.003965528
C        0.801492563   0.686872376  -0.006565409
C        0.066156864   0.929045689  -0.006185511
C        0.324559646   0.930232158  -0.000554560
C        0.582693687   0.945192130   0.016294432
C        0.822382369   0.942415759  -0.003853654
O        0.831580243   0.481288766   0.182603475
O        0.544615873   0.844985747   0.101813416
H        0.714565527   0.715154183   0.234524263
K_POINTS automatic 
  4 4 1   0 0 0 

