 &CONTROL
                 calculation = 'scf' ,
                      outdir = './tmp/' ,
                  pseudo_dir = '/home/deleted/pseudo_psl' ,
                      prefix = 'GBr_op' ,
                   verbosity = 'high' ,
               etot_conv_thr = 1.0D-5 ,
               forc_conv_thr = 4.0D-4 ,
                       nstep = 1000 ,
                    dipfield = .true. ,
 /
 &SYSTEM
                       ibrav = 4,
                           A = 9.88 ,
                           C = 15 ,
                         nat = 34,
                        ntyp = 4,
                     ecutwfc = 40.424239707 ,
                     ecutrho = 404.24239707 ,
                 occupations = 'smearing' ,
                     degauss = 0.01 ,
				   input_dft = 'vdW-DF' ,
    nspin = 2 ,
    starting_magnetization(1) = 0.5,
    starting_magnetization(2) = 0.5,
    starting_magnetization(3) = 0.5,
 /
 &ELECTRONS
            electron_maxstep = 50001,
                    conv_thr = 1.0D-6 ,
                 mixing_mode = 'local-TF' ,
                 mixing_beta = 0.5 ,
 /
ATOMIC_SPECIES
    C   12.01100  C.revpbe-n-kjpaw_psl.0.1.UPF 
   Br   79.90350  Br.revpbe-n-kjpaw_psl.0.2.UPF 
    O   15.99940  O.revpbe-n-kjpaw_psl.0.1.UPF 
    H   1.008000  H.revpbe-kjpaw_psl.0.1.UPF
ATOMIC_POSITIONS (crystal)
C       -0.005977818   0.018298697  -0.003514107
C        0.240726455   0.009422788  -0.001155174
C        0.495269287   0.018208754   0.004082378
C        0.747695090   0.027786641   0.002298679
C       -0.001320650   0.272226433  -0.005032854
C        0.079052694   0.185836487  -0.003579701
C        0.246958530   0.264917585  -0.003843228
C        0.322519922   0.173396073  -0.002594750
C        0.487250854   0.263329633  -0.003174518
C        0.576207180   0.185147889  -0.001340674
C        0.742500779   0.272171258  -0.002742442
C        0.830244656   0.192529407  -0.002574837
C       -0.006452654   0.518480414  -0.006235285
C        0.085207048   0.437388135  -0.006003762
C        0.261837526   0.518143417  -0.003262014
C        0.343760343   0.426573510  -0.003910882
C        0.553283159   0.426894511  -0.004696466
C        0.723475547   0.517290110  -0.006573264
C        0.819696043   0.437950023  -0.004584184
C       -0.014528528   0.764435151  -0.005076576
C        0.075884300   0.682803909  -0.005481895
C        0.247383631   0.762724152  -0.001267017
C        0.337412913   0.683075707   0.002439325
C        0.508314038   0.773358962   0.031055788
Br       0.658750637   0.481774018   0.222568380
C        0.736049328   0.776542123  -0.007146018
C        0.812282598   0.686353685  -0.006401685
C        0.072055871   0.929555976  -0.003566987
C        0.327355687   0.929870351   0.002289160
C        0.584774269   0.942741534   0.011328824
C        0.826947120   0.938567187  -0.003023181
O        0.832481928   0.494967118   0.174934699
O        0.509808051   0.729642450   0.119940098
H        0.616975877   0.781870661   0.142510155
K_POINTS automatic 
  16 16 1   0 0 0 

