 &CONTROL
                 calculation = 'scf' ,
                      outdir = './tmp/' ,
                  pseudo_dir = '/home/deleted/pseudo_psl' ,
                      prefix = 'GI_ip' ,
                   verbosity = 'high' ,
               etot_conv_thr = 1.0D-5 ,
               forc_conv_thr = 4.0D-4 ,
                       nstep = 1000 ,
                    dipfield = .true. ,
 /
 &SYSTEM
                       ibrav = 4,
                           A = 9.88 ,
                           C = 15 ,
                         nat = 34,
                        ntyp = 4,
                     ecutwfc = 40.424239707 ,
                     ecutrho = 404.24239707 ,
                 occupations = 'smearing' ,
                     degauss = 0.01 ,
				   input_dft = 'vdW-DF' ,
    nspin = 2 ,
    starting_magnetization(1) = 0.5,
    starting_magnetization(2) = 0.5,
    starting_magnetization(3) = 0.5,
 /
 &ELECTRONS
            electron_maxstep = 50001,
                    conv_thr = 1.0D-6 ,
                 mixing_mode = 'local-TF' ,
                 mixing_beta = 0.5 ,
 /
ATOMIC_SPECIES
    C   12.01100  C.revpbe-n-kjpaw_psl.0.1.UPF 
    I  126.90400  I.revpbe-n-kjpaw_psl.0.2.UPF 
    O   15.99940  O.revpbe-n-kjpaw_psl.0.1.UPF 
    H   1.008000  H.revpbe-kjpaw_psl.0.1.UPF
ATOMIC_POSITIONS (crystal)
C        0.004532568   0.004056108   0.003406498
C        0.257289200   0.011349499   0.006613399
C        0.502761506   0.004062887   0.002732663
C        0.751004447  -0.001303914  -0.006246356
C        0.000487190   0.250707639   0.009932863
C        0.086317351   0.171098510   0.002769779
C        0.253171567   0.257751343  -0.008574744
C        0.339926323   0.176432550  -0.006855219
C        0.507971652   0.257800149  -0.008001129
C        0.588110746   0.171102901   0.003138821
C        0.753576743   0.250670259   0.010442428
C        0.833584240   0.163848496   0.006864749
C        0.003599244   0.503555613   0.025275770
C        0.081213913   0.417425935   0.016906364
C        0.242749132   0.502311224   0.000926913
C        0.318018820   0.420638386  -0.017868896
C        0.606135807   0.420881876  -0.016349088
C        0.762757156   0.502293718   0.003384025
C        0.839680081   0.417283352   0.018165806
C        0.009864318   0.757827595   0.018453774
C        0.087640301   0.671625339   0.025336941
C        0.251331062   0.757767363   0.016983824
C        0.328047683   0.672809026   0.001094627
C        0.484935451   0.754477718  -0.017744494
I        0.546242340   0.587698534  -0.060682714
C        0.772021670   0.753963704  -0.014454959
C        0.847873456   0.672674647   0.003963031
C        0.090482912   0.924502876   0.010575233
C        0.337303903   0.924427653   0.009787493
C        0.582938560   0.917377876  -0.008265057
C        0.837609381   0.917377560  -0.007044528
O        0.541183044   0.611682883   0.135137568
O        0.554908128   0.491504529   0.181152720
H        0.592898938   0.539169857   0.239776365
K_POINTS automatic 
  16 16 1   0 0 0 

