 &CONTROL
                 calculation = 'relax' ,
                      outdir = './tmp/' ,
                  pseudo_dir = '/home/deleted/pseudo_psl' ,
                      prefix = 'GI_ip' ,
                   verbosity = 'high' ,
               etot_conv_thr = 1.0D-5 ,
               forc_conv_thr = 4.0D-4 ,
                       nstep = 1000 ,
                    dipfield = .true. ,
 /
 &SYSTEM
                       ibrav = 4,
                           A = 9.88 ,
                           C = 15 ,
                         nat = 34,
                        ntyp = 4,
                     ecutwfc = 40.424239707 ,
                     ecutrho = 404.24239707 ,
                 occupations = 'smearing' ,
                     degauss = 0.01 ,
				   input_dft = 'vdW-DF' ,
    nspin = 2 ,
    starting_magnetization(1) = 0.5,
    starting_magnetization(2) = 0.5,
    starting_magnetization(3) = 0.5,
	starting_magnetization(4) = 0.5,
 /
 &ELECTRONS
            electron_maxstep = 50001,
                    conv_thr = 1.0D-6 ,
                 mixing_mode = 'local-TF' ,
                 mixing_beta = 0.5 ,
 /
 &IONS
                ion_dynamics = 'bfgs' ,
 /
ATOMIC_SPECIES
    C   12.01100  C.revpbe-n-kjpaw_psl.0.1.UPF 
    I  126.90400  I.revpbe-n-kjpaw_psl.0.2.UPF 
    O   15.99940  O.revpbe-n-kjpaw_psl.0.1.UPF 
    H   1.008000  H.revpbe-kjpaw_psl.0.1.UPF
ATOMIC_POSITIONS (crystal)
C        0.002112016   0.002460633   0.003784229
C        0.254797742   0.009595484   0.007690276
C        0.500348617   0.002460633   0.003784229
C        0.748643738  -0.002712522  -0.006118390
C       -0.001961674   0.249168723   0.011181535
C        0.083915592   0.169605828   0.003783658
C        0.250787430   0.256057783  -0.007667652
C        0.337355125   0.174710252  -0.006110099
C        0.505270353   0.256057783  -0.007667652
C        0.585690235   0.169605828   0.003783658
C        0.751130396   0.249168723   0.011181535
C        0.831208121   0.162416243   0.007688641
C        0.001007119   0.502014237   0.026923759
C        0.078804456   0.415955016   0.018878844
C        0.240443277   0.500783815   0.002579142
C        0.315513206   0.419055965  -0.017435051
C        0.603542758   0.419055965  -0.017435051
C        0.760340538   0.500783815   0.002579142
C        0.837150558   0.415955016   0.018878844
C        0.007195563   0.756085213   0.018877622
C        0.085027938   0.670055877   0.026925501
C        0.248889649   0.756085213   0.018877622
C        0.325642199   0.671220589   0.002576189
C        0.482443292   0.752981971  -0.017443980
I        0.543023644   0.586047288  -0.063717239
C        0.770538679   0.752981971  -0.017443980
C        0.845578389   0.671220589   0.002576189
C        0.087969387   0.922870505   0.011180970
C        0.334901117   0.922870505   0.011180970
C        0.580731527   0.915980855  -0.007671195
C        0.835249326   0.915980855  -0.007671195
O        0.579980906   0.659961813   0.180706195
O        0.506075707   0.512151417   0.180762736
H        0.678821908   0.518159813   0.180734466
K_POINTS automatic 
  4 4 1   0 0 0 

