 &CONTROL
                 calculation = 'bands' ,
                      outdir = './tmp/' ,
                  pseudo_dir = '/home/deleted/pseudo_psl' ,
                      prefix = 'GCl_op' ,
                   verbosity = 'high' ,
               etot_conv_thr = 1.0D-5 ,
               forc_conv_thr = 4.0D-4 ,
                       nstep = 1000 ,
                    dipfield = .true. ,
 /
 &SYSTEM
                       ibrav = 4,
                           A = 9.88 ,
                           C = 15 ,
                         nat = 34,
                        ntyp = 4,
                     ecutwfc = 40.424239707 ,
                     ecutrho = 404.24239707 ,
                 occupations = 'tetrahedra' ,
                     degauss = 0.01 ,
				   input_dft = 'vdW-DF' ,
    nspin = 2 ,
    starting_magnetization(1) = 0.5,
    starting_magnetization(2) = 0.5,
    starting_magnetization(3) = 0.5,
 /
 &ELECTRONS
            electron_maxstep = 50001,
                    conv_thr = 1.0D-6 ,
                 mixing_mode = 'local-TF' ,
                 mixing_beta = 0.5 ,
 /
ATOMIC_SPECIES
    C   12.01100  C.revpbe-n-kjpaw_psl.0.1.UPF 
   Cl   35.45200  Cl.revpbe-n-kjpaw_psl.0.3.0.UPF 
    O   15.99940  O.revpbe-n-kjpaw_psl.0.1.UPF 
    H   1.008000  H.revpbe-kjpaw_psl.0.1.UPF
ATOMIC_POSITIONS (crystal)
C       -0.005941555   0.012429265   0.000627627
C        0.240029139   0.006806464  -0.007587132
C        0.491766959   0.012462992  -0.000249681
C        0.745178132   0.017125349   0.017442922
C       -0.004538957   0.263102789   0.001148856
C        0.077249591   0.178767336  -0.003075086
C        0.244583936   0.259065541  -0.007329621
C        0.321514407   0.169745411  -0.009350002
C        0.487867262   0.259229675  -0.007670570
C        0.574776290   0.178817469  -0.003433241
C        0.740887998   0.263114720   0.000708901
C        0.826955423   0.180649907   0.006167562
C       -0.007966181   0.510937982  -0.000014931
C        0.081453396   0.428570835   0.000510816
C        0.254976218   0.509626133   0.002160724
C        0.335766102   0.421060441  -0.003658161
C        0.558861723   0.421094849  -0.003959834
C        0.728009077   0.509632830   0.002685597
C        0.820315345   0.428587871   0.000304838
C       -0.010763890   0.758842615  -0.001947750
C        0.074402940   0.675667820  -0.003943427
C        0.242736410   0.758800081  -0.002363152
C        0.330284766   0.678421460   0.008186692
C        0.489810409   0.771068945   0.025415407
Cl       0.586856855   0.692219937   0.097651373
C        0.758368998   0.772478529   0.031108666
C        0.821838610   0.678033061   0.009964559
C        0.072922799   0.924877983  -0.003629464
C        0.325231540   0.924820733  -0.004260148
C        0.576710321   0.933082754   0.015414132
C        0.830186090   0.933730361   0.017782163
O        0.725629112   0.629599981   0.190424333
O        0.609035681   0.565567981   0.261478107
H        0.663320978   0.640413189   0.309486601
K_POINTS automatic 
  20 20 1   0 0 0 

