 &CONTROL
                 calculation = 'nscf' ,
                      outdir = './tmp/' ,
                  pseudo_dir = '/home/deleted/pseudo_psl' ,
                      prefix = 'GCl_op' ,
                   verbosity = 'high' ,
               etot_conv_thr = 1.0D-5 ,
               forc_conv_thr = 4.0D-4 ,
                       nstep = 1000 ,
                    dipfield = .true. ,
 /
 &SYSTEM
                       ibrav = 4,
                           A = 9.88 ,
                           C = 15 ,
                         nat = 33,
                        ntyp = 3,
                     ecutwfc = 40.424239707 ,
                     ecutrho = 404.24239707 ,
                 occupations = 'tetrahedra' ,
                     degauss = 0.01 ,
				   input_dft = 'vdW-DF' ,
    nspin = 2 ,
    starting_magnetization(1) = 0.5,
    starting_magnetization(2) = 0.5,
    starting_magnetization(3) = 0.5,
 /
 &ELECTRONS
            electron_maxstep = 50001,
                    conv_thr = 1.0D-6 ,
                 mixing_mode = 'local-TF' ,
                 mixing_beta = 0.5 ,
 /
ATOMIC_SPECIES
    C   12.01100  C.revpbe-n-kjpaw_psl.0.1.UPF 
   Cl   35.45200  Cl.revpbe-n-kjpaw_psl.0.3.0.UPF 
    O   15.99940  O.revpbe-n-kjpaw_psl.0.1.UPF 
ATOMIC_POSITIONS (crystal)
C        0.007048168  -0.007612033  -0.004081630
C        0.253953848  -0.011892437  -0.012931229
C        0.505662915  -0.006298372  -0.012533609
C        0.759012034  -0.003252803   0.002753659
C        0.009444087   0.244145092  -0.005714670
C        0.090653729   0.159256390  -0.008813926
C        0.258381799   0.240157853  -0.011529520
C        0.335568678   0.151234103  -0.012547792
C        0.501875535   0.241051738  -0.010743344
C        0.588483279   0.160075845  -0.009504167
C        0.754706147   0.244043699  -0.007135883
C        0.840856044   0.161271996  -0.003375393
C        0.005949686   0.492050820  -0.008357177
C        0.095551373   0.409592551  -0.009015611
C        0.269078537   0.490749258  -0.013005542
C        0.350165341   0.402658024  -0.011274457
C        0.572677881   0.403310461  -0.006455854
C        0.742194641   0.491578391   0.000244940
C        0.834179009   0.409752735  -0.005516123
C        0.002402418   0.740141007  -0.006878409
C        0.087683178   0.656992491  -0.012226039
C        0.255938837   0.740087175  -0.016000891
C        0.344591800   0.659285721  -0.017492163
C        0.504927474   0.752690832  -0.019711700
Cl       0.630824353   0.679358112   0.122977624
C        0.771192282   0.752763617   0.036150824
C        0.836000206   0.659923853   0.009134120
C        0.087125384   0.906165409  -0.007908499
C        0.339142497   0.906087536  -0.015387355
C        0.592139829   0.912643103  -0.009590965
C        0.842472920   0.912841991   0.012509354
O        0.364908685   0.827666106   0.204449394
O        0.484433978   0.959948736   0.206361928
K_POINTS automatic 
  20 20 1   0 0 0 

