 &CONTROL
                 calculation = 'bands' ,
                      outdir = './tmp/' ,
                  pseudo_dir = '/home/deleted/pseudo_psl' ,
                      prefix = 'GF_ip' ,
                   verbosity = 'high' ,
               etot_conv_thr = 1.0D-5 ,
               forc_conv_thr = 4.0D-4 ,
                       nstep = 1000 ,
                    dipfield = .true. ,
 /
 &SYSTEM
                       ibrav = 4,
                           A = 9.88 ,
                           C = 15 ,
                         nat = 32,
                        ntyp = 3,
                     ecutwfc = 40.424239707 ,
                     ecutrho = 404.24239707 ,
                 occupations = 'tetrahedra' ,
                     degauss = 0.01 ,
				   input_dft = 'vdW-DF' ,
 /
 &ELECTRONS
            electron_maxstep = 50001,
                    conv_thr = 1.0D-6 ,
                 mixing_mode = 'local-TF' ,
                 mixing_beta = 0.5 ,
 /
ATOMIC_SPECIES
    C   12.01100  C.revpbe-n-kjpaw_psl.0.1.UPF 
    F   18.99800  F.revpbe-n-kjpaw_psl.0.1.UPF 
    O   15.99940  O.revpbe-n-kjpaw_psl.0.1.UPF 
ATOMIC_POSITIONS crystal 
C        0.001566800   0.000838304   0.002715075
C        0.248274020  -0.003451960   0.012016750
C        0.499271504   0.000838304   0.002715075
C        0.752477505   0.004955011  -0.012638984
C        0.001123057   0.250803691   0.003621468
C        0.083205823   0.166140255   0.007459320
C        0.248152796   0.245317705   0.017172503
C        0.330455256   0.160910511   0.018421099
C        0.497164909   0.245317705   0.017172503
C        0.582934431   0.166140255   0.007459320
C        0.749680633   0.250803691   0.003621468
C        0.834491909   0.168983818  -0.002194051
C       -0.000714630   0.498570740   0.004175521
C        0.085123795   0.416316218   0.005363049
C        0.255145534   0.497048903   0.007927822
C        0.331252416   0.409087519   0.020396799
C        0.577835102   0.409087519   0.020396799
C        0.741903369   0.497048903   0.007927822
C        0.831192422   0.416316218   0.005363049
C       -0.001866542   0.748102326   0.004777614
C        0.082470009   0.664940018   0.006481422
C        0.249968867   0.748102326   0.004777614
C        0.336587446   0.664294066  -0.001792155
C        0.494313598   0.762515353  -0.017246570
F        0.597038028   0.694076057  -0.056792366
C        0.768201755   0.762515353  -0.017246570
C        0.827706619   0.664294066  -0.001792155
C        0.081386426   0.914294305   0.006834085
C        0.332907877   0.914294305   0.006834085
C        0.585904550   0.922398005  -0.011375012
C        0.836493454   0.922398005  -0.011375012
O        0.491684588   0.483369175   0.038822612
K_POINTS crystal_b 
4
0.0000000000    0.0000000000    0.0000000000 17
0.0000000000    0.5000000000    0.0000000000 10
0.3333333333    0.3333333333    0.0000000000 20
0.0000000000    0.0000000000    0.0000000000 1

