 &CONTROL
                 calculation = 'nscf' ,
                      outdir = './tmp/' ,
                  pseudo_dir = '/home/deleted/pseudo_psl' ,
                      prefix = 'GBr_op' ,
                   verbosity = 'high' ,
               etot_conv_thr = 1.0D-5 ,
               forc_conv_thr = 4.0D-4 ,
                       nstep = 1000 ,
                    dipfield = .true. ,
 /
 &SYSTEM
                       ibrav = 4,
                           A = 9.88 ,
                           C = 15 ,
                         nat = 33,
                        ntyp = 3,
                     ecutwfc = 40.424239707 ,
                     ecutrho = 404.24239707 ,
                 occupations = 'tetrahedra' ,
                     degauss = 0.01 ,
				   input_dft = 'vdW-DF' ,
    nspin = 2 ,
    starting_magnetization(1) = 0.5,
    starting_magnetization(2) = 0.5,
    starting_magnetization(3) = 0.5,
 /
 &ELECTRONS
            electron_maxstep = 50001,
                    conv_thr = 1.0D-6 ,
                 mixing_mode = 'local-TF' ,
                 mixing_beta = 0.5 ,
 /
ATOMIC_SPECIES
    C   12.01100  C.revpbe-n-kjpaw_psl.0.1.UPF 
   Br   79.90350  Br.revpbe-n-kjpaw_psl.0.2.UPF 
    O   15.99940  O.revpbe-n-kjpaw_psl.0.1.UPF 
ATOMIC_POSITIONS (crystal)
C        0.009409572   0.007237757   0.001879345
C        0.255257062  -0.002866422  -0.001061149
C        0.511744421   0.007552885  -0.004089806
C        0.768383655   0.020344631  -0.001048891
C        0.017998165   0.263058309  -0.003518329
C        0.096107047   0.174457821  -0.001861837
C        0.263151831   0.251596325  -0.003053659
C        0.337232954   0.160269514  -0.002499356
C        0.503523468   0.252459351  -0.004239258
C        0.593225105   0.174878230  -0.004666489
C        0.760377728   0.262930549  -0.005778138
C        0.849906503   0.184084108  -0.004008680
C        0.011955582   0.508393348  -0.005149452
C        0.106795009   0.428267531  -0.004877758
C        0.283589954   0.506376889  -0.004762349
C        0.363553474   0.414417135  -0.004502912
C        0.565735209   0.414586437  -0.004678880
C        0.739004892   0.507295215  -0.004744635
C        0.837610797   0.427851744  -0.006019698
C       -0.000777772   0.752068740  -0.001299582
C        0.093542829   0.672427703  -0.003594331
C        0.267698757   0.753188909  -0.002959239
C        0.365591465   0.675023414  -0.003750481
C        0.534468126   0.768222970  -0.004288221
Br       0.685201331   0.724235566   0.163555440
C        0.742650186   0.765138080   0.017435028
C        0.825778395   0.673287711  -0.000139603
C        0.087876537   0.918219469   0.001190596
C        0.345001007   0.918053432  -0.002650768
C        0.601297574   0.930030801  -0.003779262
C        0.843550766   0.931774972   0.005616214
O        0.244462088   0.417217460   0.221098181
O        0.155762942   0.471252752   0.215581290
K_POINTS automatic 
  20 20 1   0 0 0 

