 &CONTROL
                 calculation = 'scf' ,
                      outdir = './tmp/' ,
                  pseudo_dir = '/home/deleted/pseudo_psl' ,
                      prefix = 'GF_op' ,
                   verbosity = 'high' ,
               etot_conv_thr = 1.0D-5 ,
               forc_conv_thr = 4.0D-4 ,
                       nstep = 1000 ,
                    dipfield = .true. ,
 /
 &SYSTEM
                       ibrav = 4,
                           A = 9.88 ,
                           C = 15 ,
                         nat = 34,
                        ntyp = 4,
                     ecutwfc = 40.424239707 ,
                     ecutrho = 404.24239707 ,
                 occupations = 'smearing' ,
                     degauss = 0.01 ,
				   input_dft = 'vdW-DF' ,
 /
 &ELECTRONS
            electron_maxstep = 50001,
                    conv_thr = 1.0D-6 ,
                 mixing_mode = 'local-TF' ,
                 mixing_beta = 0.5 ,
 /
ATOMIC_SPECIES
    C   12.01100  C.revpbe-n-kjpaw_psl.0.1.UPF 
    F   18.99800  F.revpbe-n-kjpaw_psl.0.1.UPF 
    O   15.99940  O.revpbe-n-kjpaw_psl.0.1.UPF 
	H   1.00800   H.revpbe-kjpaw_psl.0.1.UPF
ATOMIC_POSITIONS crystal 
C       -0.001145319   0.006853415   0.008520549
C        0.247350568   0.005147755   0.011704466
C        0.497391012   0.006948671   0.013144277
C        0.748105444   0.007603292   0.010821235
C       -0.000785283   0.257398457   0.013150508
C        0.080618357   0.172530995   0.015004112
C        0.246444691   0.253189762   0.016654524
C        0.329664117   0.169827773   0.012388124
C        0.496296008   0.253427881   0.007881338
C        0.581471322   0.172646661   0.006227750
C        0.747851659   0.257326355   0.008349798
C        0.831586272   0.173592323   0.010324309
C       -0.001771919   0.506406014   0.012007482
C        0.083552658   0.423644130   0.018277329
C        0.252804101   0.506541657   0.029025924
C        0.328577551   0.416501542   0.022501929
C        0.577754250   0.417028402   0.007091643
C        0.743160140   0.506106815  -0.001938739
C        0.829971910   0.423521754   0.005460494
C       -0.001798797   0.756399056   0.005516370
C        0.081809539   0.672846032   0.012365962
C        0.249108685   0.756467468   0.019304068
C        0.334384270   0.675877402   0.036458694
C        0.494988429   0.771662767   0.058997644
F        0.631546337   0.708666981  -0.078233276
C        0.766517652   0.769337491  -0.029066953
C        0.831684141   0.675083494  -0.009253362
C        0.080959079   0.922446385   0.008314318
C        0.331017650   0.922573559   0.014983747
C        0.581555896   0.926842697   0.025691901
C        0.833849601   0.926648267  -0.002945762
O        0.576214184   0.732200964   0.117016154
O        0.491925378   0.492396484   0.022240080
H        0.532734875   0.619377346   0.119407866
K_POINTS automatic 
  16 16 1   0 0 0 
