 &CONTROL
                 calculation = 'scf' ,
                      outdir = './tmp/' ,
                  pseudo_dir = '/home/deleted/pseudo_psl' ,
                      prefix = 'GF_op' ,
                   verbosity = 'high' ,
               etot_conv_thr = 1.0D-5 ,
               forc_conv_thr = 4.0D-4 ,
                       nstep = 1000 ,
                    dipfield = .true. ,
 /
 &SYSTEM
                       ibrav = 4,
                           A = 9.88 ,
                           C = 15 ,
                         nat = 34,
                        ntyp = 4,
                     ecutwfc = 40.424239707 ,
                     ecutrho = 404.24239707 ,
                 occupations = 'smearing' ,
                     degauss = 0.01 ,
				   input_dft = 'vdW-DF' ,
 /
 &ELECTRONS
            electron_maxstep = 50001,
                    conv_thr = 1.0D-6 ,
                 mixing_mode = 'local-TF' ,
                 mixing_beta = 0.5 ,
 /
ATOMIC_SPECIES
    C   12.01100  C.revpbe-n-kjpaw_psl.0.1.UPF 
    F   18.99800  F.revpbe-n-kjpaw_psl.0.1.UPF 
    O   15.99940  O.revpbe-n-kjpaw_psl.0.1.UPF 
	H   1.00800   H.revpbe-kjpaw_psl.0.1.UPF
ATOMIC_POSITIONS crystal 
C       -0.000014499   0.001908730  -0.007094739
C        0.246673231  -0.000622357   0.003367978
C        0.495894325  -0.000056637   0.003293352
C        0.748119608   0.002143925  -0.010332396
C       -0.003587941   0.249484983   0.000306559
C        0.081632912   0.167171036   0.004374251
C        0.242352626   0.245830321   0.024819661
C        0.328730112   0.164689488   0.016349130
C        0.493863035   0.242456200   0.014762742
C        0.578910455   0.165143656   0.006288655
C        0.747912199   0.250929422  -0.000175375
C        0.831206576   0.167354372  -0.004791963
C       -0.002489905   0.498675293  -0.005382198
C        0.080556829   0.415735379   0.000765478
C        0.243620958   0.497004449   0.015600255
C        0.305690788   0.406552469   0.060505333
C        0.579560536   0.411851008   0.018329262
C        0.750140832   0.501276969   0.009192947
C        0.833301812   0.414637402  -0.001450041
C       -0.001162723   0.751190419  -0.009709106
C        0.080566544   0.665740081  -0.004419228
C        0.245730651   0.748890606   0.000077007
C        0.328723365   0.662253938   0.006503988
C        0.488732798   0.760426945   0.000216759
F        0.585953727   0.676941366  -0.026605660
C        0.766220789   0.761318110  -0.019376109
C        0.832058340   0.668611087  -0.013703863
C        0.081215047   0.916932989  -0.005295510
C        0.330021525   0.916131650   0.001676145
C        0.581839784   0.919170127  -0.003821370
C        0.833711053   0.922009543  -0.014697623
O        0.672228649   0.481896615   0.098111312
O        0.392365010   0.458876549   0.126653553
H        0.514799726   0.463442225  -0.007106749
K_POINTS automatic 
  16 16 1   0 0 0 