 &CONTROL
                 calculation = 'bands' ,
                      outdir = './tmp/' ,
                  pseudo_dir = '/home/deleted/pseudo_psl' ,
                      prefix = 'GCl_op' ,
                   verbosity = 'high' ,
               etot_conv_thr = 1.0D-5 ,
               forc_conv_thr = 4.0D-4 ,
                       nstep = 1000 ,
                    dipfield = .true. ,
 /
 &SYSTEM
                       ibrav = 4,
                           A = 9.88 ,
                           C = 15 ,
                         nat = 32,
                        ntyp = 3,
                     ecutwfc = 40.424239707 ,
                     ecutrho = 404.24239707 ,
                 occupations = 'tetrahedra' ,
                     degauss = 0.01 ,
				   input_dft = 'vdW-DF' ,
 /
 &ELECTRONS
            electron_maxstep = 50001,
                    conv_thr = 1.0D-6 ,
                 mixing_mode = 'local-TF' ,
                 mixing_beta = 0.5 ,
 /
ATOMIC_SPECIES
    C   12.01100  C.revpbe-n-kjpaw_psl.0.1.UPF 
   Cl   35.45200  Cl.revpbe-n-kjpaw_psl.0.3.0.UPF 
    O   15.99940  O.revpbe-n-kjpaw_psl.0.1.UPF 
ATOMIC_POSITIONS crystal 
C        0.003832564   0.006499205  -0.013061322
C        0.252691932   0.006392936  -0.010375990
C        0.501632925   0.006275984   0.000289172
C        0.752893286   0.006255086   0.006551446
C        0.000539196   0.254200732  -0.002445662
C        0.085136392   0.171660954  -0.004621522
C        0.248366814   0.250798357   0.009802780
C        0.334192424   0.172232056  -0.002262215
C        0.502788159   0.257732242  -0.007155453
C        0.585667252   0.172843265  -0.004004699
C        0.751589746   0.255330564  -0.006043186
C        0.835164970   0.171476732  -0.001624098
C        0.002075551   0.504980252  -0.011012707
C        0.084709269   0.421672344  -0.001278173
C        0.246281585   0.502658721   0.018460360
C        0.305740154   0.402364671   0.055178314
C        0.586228780   0.419629307  -0.017136658
C        0.749196549   0.502495296  -0.014312301
C        0.835263962   0.420976537  -0.012270612
C        0.004010335   0.755853412  -0.017564095
C        0.086124520   0.671221166  -0.013290924
C        0.251620439   0.754866173  -0.003901180
C        0.331477947   0.669313008   0.015512920
C        0.493825490   0.763044859   0.026653227
Cl       0.595966134   0.670551598   0.066646067
C        0.768643258   0.763192770   0.003024196
C        0.837658134   0.672228393  -0.012325173
C        0.086278824   0.922403859  -0.014850198
C        0.335641496   0.921849059  -0.005881215
C        0.585331717   0.924020466   0.011835039
C        0.838674046   0.925206399  -0.001693099
O        0.370756145   0.429773605   0.129823623
K_POINTS crystal_b 
4
0.0000000000    0.0000000000    0.0000000000 17
0.0000000000    0.5000000000    0.0000000000 10
0.3333333333    0.3333333333    0.0000000000 20
0.0000000000    0.0000000000    0.0000000000 1

