 &CONTROL
                 calculation = 'scf' ,
                      outdir = './tmp/' ,
                  pseudo_dir = '/home/deleted/pseudo_psl' ,
                      prefix = 'GBr_ip' ,
                   verbosity = 'high' ,
               etot_conv_thr = 1.0D-5 ,
               forc_conv_thr = 4.0D-4 ,
                       nstep = 1000 ,
                    dipfield = .true. ,
 /
 &SYSTEM
                       ibrav = 4,
                           A = 9.88 ,
                           C = 15 ,
                         nat = 33,
                        ntyp = 3,
                     ecutwfc = 40.424239707 ,
                     ecutrho = 404.24239707 ,
                 occupations = 'smearing' ,
                     degauss = 0.01 ,
				   input_dft = 'vdW-DF' ,
    nspin = 2 ,
    starting_magnetization(1) = 0.5,
    starting_magnetization(2) = 0.5,
    starting_magnetization(3) = 0.5,
 /
 &ELECTRONS
            electron_maxstep = 50001,
                    conv_thr = 1.0D-6 ,
                 mixing_mode = 'local-TF' ,
                 mixing_beta = 0.5 ,
 /
ATOMIC_SPECIES
    C   12.01100  C.revpbe-n-kjpaw_psl.0.1.UPF 
   Br   79.90350  Br.revpbe-n-kjpaw_psl.0.2.UPF 
    O   15.99940  O.revpbe-n-kjpaw_psl.0.1.UPF 
ATOMIC_POSITIONS (crystal)
C       -0.005528110   0.002367613   0.002438228
C        0.246983907   0.009107278   0.006185473
C        0.492791590   0.002430499   0.002598774
C        0.741022635  -0.002803705  -0.004365723
C       -0.009298453   0.249373489   0.008102068
C        0.076371839   0.169505184   0.002438992
C        0.243984125   0.256470814  -0.005768508
C        0.329847762   0.174792499  -0.004089492
C        0.497412508   0.256493203  -0.005686116
C        0.578060793   0.169554652   0.002648983
C        0.743628270   0.249385895   0.008192725
C        0.823895338   0.162863221   0.005994030
C       -0.006515607   0.501902718   0.019375281
C        0.071429850   0.416078811   0.013470040
C        0.234236416   0.501005315   0.001033947
C        0.310432069   0.419579616  -0.014345614
C        0.594173798   0.419578745  -0.014380543
C        0.751784658   0.500960339   0.001095606
C        0.829696657   0.416070186   0.013498969
C       -0.000448048   0.755835591   0.013610694
C        0.077499378   0.669978622   0.019430889
C        0.241269044   0.755861430   0.013456110
C        0.319206445   0.671031601   0.000881615
C        0.476778372   0.752448846  -0.014748685
Br       0.535528955   0.585939492  -0.040609810
C        0.760546414   0.752346918  -0.014411042
C        0.836759973   0.670970531   0.001152615
C        0.080179852   0.922533316   0.008229622
C        0.327248912   0.922574942   0.008254504
C        0.573457024   0.915531563  -0.005959731
C        0.826871274   0.915461416  -0.005927695
O        0.572750886   0.657495528   0.188317099
O        0.494608134   0.510607167   0.189886695
K_POINTS automatic 
  16 16 1   0 0 0 

