 &CONTROL
                 calculation = 'relax' ,
                      outdir = './tmp/' ,
                  pseudo_dir = '/home/deleted/pseudo_psl' ,
                      prefix = 'GCl_ip' ,
                   verbosity = 'high' ,
               etot_conv_thr = 1.0D-5 ,
               forc_conv_thr = 4.0D-4 ,
                       nstep = 1000 ,
                    dipfield = .true. ,
 /
 &SYSTEM
                       ibrav = 4,
                           A = 9.88 ,
                           C = 15 ,
                         nat = 33,
                        ntyp = 3,
                     ecutwfc = 40.424239707 ,
                     ecutrho = 404.24239707 ,
                 occupations = 'smearing' ,
                     degauss = 0.01 ,
				   input_dft = 'vdW-DF' ,
 /
 &ELECTRONS
            electron_maxstep = 50001,
                    conv_thr = 1.0D-6 ,
                 mixing_mode = 'local-TF' ,
                 mixing_beta = 0.5 ,
 /
 &IONS
                ion_dynamics = 'bfgs' ,
 /
ATOMIC_SPECIES
    C   12.01100  C.revpbe-n-kjpaw_psl.0.1.UPF 
   Cl   35.45200  Cl.revpbe-n-kjpaw_psl.0.3.0.UPF 
    O   15.99940  O.revpbe-n-kjpaw_psl.0.1.UPF 
ATOMIC_POSITIONS crystal 
C       -0.014136293  -0.004256759   0.007469024
C        0.231186502  -0.011129291   0.016674886
C        0.483387974  -0.004078527   0.009663282
C        0.737290664   0.000866188  -0.010298704
C       -0.012932776   0.246338013   0.006673452
C        0.069084371   0.161997334   0.010959428
C        0.236470031   0.241766881   0.014821386
C        0.312857676   0.152142099   0.018160046
C        0.478706358   0.242075533   0.016118474
C        0.566277665   0.162300646   0.012581249
C        0.732590579   0.246408268   0.007256175
C        0.819076172   0.164775043   0.001581202
C       -0.016566138   0.493617979   0.007324276
C        0.073430227   0.411843104   0.007143176
C        0.247184249   0.492255693   0.004683781
C        0.330003085   0.403788061   0.009386771
C        0.547410160   0.404440394   0.010406438
C        0.718388929   0.492563999   0.004736658
C        0.811617050   0.411813878   0.007030004
C       -0.018931608   0.741528713   0.009213916
C        0.065934677   0.658609927   0.011426721
C        0.233781534   0.741292479   0.010590884
C        0.320146393   0.660035454  -0.001362344
C        0.478262421   0.756982448  -0.020503753
Cl       0.574859521   0.678610983  -0.085293107
C        0.751941721   0.756625201  -0.022613899
C        0.813284613   0.660216808  -0.002284157
C        0.064449822   0.907461495   0.011784477
C        0.316681799   0.907487534   0.013446283
C        0.569216143   0.917960877  -0.008421904
C        0.822280583   0.917898664  -0.010300659
O        0.595425260   0.649887182   0.153864830
O        0.728007296   0.669207036   0.178081707
K_POINTS automatic 
  4 4 1   0 0 0 

