 &CONTROL
                 calculation = 'scf' ,
                      outdir = './tmp/' ,
                  pseudo_dir = '/home/deleted/pseudo_psl' ,
                      prefix = 'GCl_ip' ,
                   verbosity = 'high' ,
               etot_conv_thr = 1.0D-5 ,
               forc_conv_thr = 4.0D-4 ,
                       nstep = 1000 ,
                    dipfield = .true. ,
 /
 &SYSTEM
                       ibrav = 4,
                           A = 9.88 ,
                           C = 15 ,
                         nat = 33,
                        ntyp = 3,
                     ecutwfc = 40.424239707 ,
                     ecutrho = 404.24239707 ,
                 occupations = 'smearing' ,
                     degauss = 0.01 ,
				   input_dft = 'vdW-DF' ,
 /
 &ELECTRONS
            electron_maxstep = 50001,
                    conv_thr = 1.0D-6 ,
                 mixing_mode = 'local-TF' ,
                 mixing_beta = 0.5 ,
 /
ATOMIC_SPECIES
    C   12.01100  C.revpbe-n-kjpaw_psl.0.1.UPF 
   Cl   35.45200  Cl.revpbe-n-kjpaw_psl.0.3.0.UPF 
    O   15.99940  O.revpbe-n-kjpaw_psl.0.1.UPF 
ATOMIC_POSITIONS crystal 
C       -0.014288947  -0.005369470   0.008077319
C        0.230909075  -0.012275972   0.016330981
C        0.483073210  -0.005439917   0.008459074
C        0.737280554  -0.000374392  -0.009867746
C       -0.012973789   0.245118612   0.007190838
C        0.069148908   0.160918189   0.011339562
C        0.236528100   0.240778590   0.015277603
C        0.312685183   0.150912131   0.017848315
C        0.478566707   0.240563497   0.015554768
C        0.566109694   0.160779113   0.012033924
C        0.732456267   0.245043990   0.007512410
C        0.818987485   0.163459346   0.001881963
C       -0.016650078   0.492382452   0.008161686
C        0.073407601   0.410651948   0.007442055
C        0.247211792   0.491197648   0.004538142
C        0.329941309   0.402916430   0.010462741
C        0.547560446   0.402675816   0.010762150
C        0.718344446   0.491278038   0.006745335
C        0.811542212   0.410352205   0.008247027
C       -0.019102900   0.740262111   0.010271437
C        0.065827731   0.657424399   0.011852501
C        0.233654063   0.740260426   0.009805579
C        0.319985057   0.659044112  -0.002697627
C        0.477786894   0.755985576  -0.022535477
Cl       0.575722470   0.676407309  -0.084762458
C        0.749281531   0.754275618  -0.016289308
C        0.813082348   0.658851644   0.000363339
C        0.064283882   0.906226698   0.012415945
C        0.316440500   0.906306524   0.012415680
C        0.568880175   0.916587658  -0.009537987
C        0.822016219   0.916817071  -0.008394457
O        0.617091068   0.697511999   0.141052718
O        0.711877448   0.661803938   0.178041965
K_POINTS automatic 
  16 16 1   0 0 0 

