 &CONTROL
                 calculation = 'bands' ,
                      outdir = './tmp/' ,
                  pseudo_dir = '/home/deleted/pseudo_psl' ,
                      prefix = 'GCl_op' ,
                   verbosity = 'high' ,
               etot_conv_thr = 1.0D-5 ,
               forc_conv_thr = 4.0D-4 ,
                       nstep = 1000 ,
                    dipfield = .true. ,
 /
 &SYSTEM
                       ibrav = 4,
                           A = 9.88 ,
                           C = 15 ,
                         nat = 33,
                        ntyp = 3,
                     ecutwfc = 40.424239707 ,
                     ecutrho = 404.24239707 ,
                 occupations = 'tetrahedra' ,
                     degauss = 0.01 ,
				   input_dft = 'vdW-DF' ,
 /
 &ELECTRONS
            electron_maxstep = 50001,
                    conv_thr = 1.0D-6 ,
                 mixing_mode = 'local-TF' ,
                 mixing_beta = 0.5 ,
 /
ATOMIC_SPECIES
    C   12.01100  C.revpbe-n-kjpaw_psl.0.1.UPF 
   Cl   35.45200  Cl.revpbe-n-kjpaw_psl.0.3.0.UPF 
    O   15.99940  O.revpbe-n-kjpaw_psl.0.1.UPF 
ATOMIC_POSITIONS crystal 
C        0.008701953   0.015023685   0.002462814
C        0.254806206   0.009612413  -0.005840037
C        0.506321732   0.015023685   0.002462814
C        0.759792105   0.019584209   0.020575575
C        0.009765438   0.265417090   0.003017117
C        0.091783280   0.181288061  -0.001342915
C        0.258923184   0.261588789  -0.006007663
C        0.336351526   0.172703052  -0.007638056
C        0.502665605   0.261588789  -0.006007663
C        0.589504779   0.181288061  -0.001342915
C        0.755651652   0.265417090   0.003017117
C        0.841585344   0.183170690   0.008757895
C        0.006617814   0.513235629   0.001398209
C        0.095522278   0.430940659   0.001970554
C        0.268592067   0.511783977   0.003695270
C        0.348854484   0.423496494  -0.002264126
C        0.574642009   0.423496494  -0.002264126
C        0.743191911   0.511783977   0.003695270
C        0.835418381   0.430940659   0.001970554
C        0.004311573   0.761411934  -0.000591352
C        0.089109934   0.678219868  -0.002654643
C        0.257100361   0.761411934  -0.000591352
C        0.343654330   0.680418531   0.010711248
C        0.502009998   0.774697316   0.030239494
Cl       0.594789396   0.689578793   0.094383417
C        0.772687319   0.774697316   0.030239494
C        0.836764200   0.680418531   0.010711248
C        0.087714188   0.927593286  -0.002087054
C        0.339879096   0.927593286  -0.002087054
C        0.591569930   0.936281663   0.019479996
C        0.844711732   0.936281663   0.019479996
O        0.547337758   0.463911823   0.209126194
O        0.416574064   0.463911823   0.209126194
K_POINTS crystal_b 
4
0.0000000000    0.0000000000    0.0000000000 17
0.0000000000    0.5000000000    0.0000000000 10
0.3333333333    0.3333333333    0.0000000000 20
0.0000000000    0.0000000000    0.0000000000 1

