 &CONTROL
                 calculation = 'scf' ,
                      outdir = './tmp/' ,
                  pseudo_dir = '/home/deleted/pseudo_psl' ,
                      prefix = 'GI_op' ,
                   verbosity = 'high' ,
               etot_conv_thr = 1.0D-5 ,
               forc_conv_thr = 4.0D-4 ,
                       nstep = 1000 ,
                    dipfield = .true. ,
 /
 &SYSTEM
                       ibrav = 4,
                           A = 9.88 ,
                           C = 15 ,
                         nat = 32,
                        ntyp = 3,
                     ecutwfc = 40.424239707 ,
                     ecutrho = 404.24239707 ,
                 occupations = 'smearing' ,
                     degauss = 0.01 ,
				   input_dft = 'vdW-DF' ,
    nspin = 2 ,
    starting_magnetization(1) = 0.5,
    starting_magnetization(2) = 0.5,
    starting_magnetization(3) = 0.5,
 /
 &ELECTRONS
            electron_maxstep = 50001,
                    conv_thr = 1.0D-6 ,
                 mixing_mode = 'local-TF' ,
                 mixing_beta = 0.5 ,
 /
ATOMIC_SPECIES
    C   12.01100  C.revpbe-n-kjpaw_psl.0.1.UPF 
    I  126.90400  I.revpbe-n-kjpaw_psl.0.2.UPF 
    O   15.99940  O.revpbe-n-kjpaw_psl.0.1.UPF 
ATOMIC_POSITIONS (crystal)
C       -0.002305093  -0.000659728   0.002962619
C        0.247021676  -0.005956648   0.002823336
C        0.501645366  -0.000659728   0.002962619
C        0.755743304   0.011486608   0.002720851
C        0.004170265   0.254767064   0.002338021
C        0.081623263   0.165688347   0.002717240
C        0.247238143   0.243333711   0.001752719
C        0.329260154   0.158520310   0.002180335
C        0.496095568   0.243333711   0.001752719
C        0.584065083   0.165688347   0.002717240
C        0.750596799   0.254767064   0.002338021
C        0.837267155   0.174534311   0.002715796
C        0.001125523   0.502251047   0.001287054
C        0.089511861   0.420709514   0.001324715
C        0.259254030   0.500286855   0.000223255
C        0.331334084   0.406632746  -0.000301667
C        0.575298662   0.406632746  -0.000301667
C        0.741032825   0.500286855   0.000223255
C        0.831197651   0.420709514   0.001324715
C       -0.008811665   0.748254457   0.001576841
C        0.083492661   0.666985322   0.001288379
C        0.257066122   0.748254457   0.001576841
C        0.352296883   0.668191431   0.000820837
C        0.525059611   0.759082267   0.002256413
I        0.587159197   0.674318395   0.215345042
C        0.734022656   0.759082267   0.002256413
C        0.815894547   0.668191431   0.000820837
C        0.078626883   0.913585276   0.002663805
C        0.334958391   0.913585276   0.002663805
C        0.590124657   0.921217443   0.002706588
C        0.831092786   0.921217443   0.002706588
O        0.491174281   0.482348562  -0.003776898
K_POINTS automatic 
  16 16 1   0 0 0 

