 &CONTROL
                 calculation = 'relax' ,
                      outdir = './tmp/' ,
                  pseudo_dir = '/home/deleted/pseudo_psl' ,
                      prefix = 'GBr_ip' ,
                   verbosity = 'high' ,
               etot_conv_thr = 1.0D-5 ,
               forc_conv_thr = 4.0D-4 ,
                       nstep = 1000 ,
                    dipfield = .true. ,
 /
 &SYSTEM
                       ibrav = 4,
                           A = 9.88 ,
                           C = 15 ,
                         nat = 34,
                        ntyp = 4,
                     ecutwfc = 40.424239707 ,
                     ecutrho = 404.24239707 ,
                 occupations = 'smearing' ,
                     degauss = 0.01 ,
				   input_dft = 'vdW-DF' ,
 /
 &ELECTRONS
            electron_maxstep = 50001,
                    conv_thr = 1.0D-6 ,
                 mixing_mode = 'local-TF' ,
                 mixing_beta = 0.5 ,
 /
 &IONS
                ion_dynamics = 'bfgs' ,
 /
ATOMIC_SPECIES
    C   12.01100  C.revpbe-n-kjpaw_psl.0.1.UPF 
   Br   79.90350  Br.revpbe-n-kjpaw_psl.0.2.UPF 
    O   15.99940  O.revpbe-n-kjpaw_psl.0.1.UPF 
    H   1.008000  H.revpbe-kjpaw_psl.0.1.UPF
ATOMIC_POSITIONS crystal 
C        0.002044042   0.002418394   0.000933033
C        0.254634595   0.009269190   0.004210677
C        0.500374353   0.002418394   0.000933033
C        0.748536973  -0.002926055  -0.005596077
C       -0.001787822   0.249382032   0.006342653
C        0.083970619   0.169625593   0.000935354
C        0.251752318   0.256741001  -0.006990730
C        0.337488639   0.174977280  -0.005606431
C        0.504988685   0.256741001  -0.006990730
C        0.585654973   0.169625593   0.000935354
C        0.751169854   0.249382032   0.006342653
C        0.831393200   0.162786401   0.004215545
C        0.001002157   0.502004315   0.017117053
C        0.078817657   0.416053208   0.011565438
C        0.241753599   0.501072170   0.000112561
C        0.318313469   0.420041680  -0.014598201
C        0.601728209   0.420041680  -0.014598201
C        0.759318571   0.501072170   0.000112561
C        0.837235550   0.416053208   0.011565438
C        0.007206099   0.756001759   0.011565392
C        0.085027235   0.670054471   0.017119391
C        0.248795661   0.756001759   0.011565392
C        0.326710802   0.670984341   0.000113816
C        0.484303164   0.751996601  -0.014588247
Br       0.543008547   0.586017096  -0.041148137
C        0.767693437   0.751996601  -0.014588247
C        0.844273538   0.670984341   0.000113816
C        0.087816006   0.922673940   0.006337779
C        0.334857933   0.922673940   0.006337779
C        0.581040696   0.915305414  -0.006983927
C        0.834264716   0.915305414  -0.006983927
O        0.542876767   0.585753536   0.167638472
O        0.543044392   0.586088785   0.252559665
H        0.453517901   0.630642601   0.210099069
K_POINTS automatic 
  4 4 1   0 0 0 

