 &CONTROL
                 calculation = 'scf' ,
                      outdir = './tmp/' ,
                  pseudo_dir = '/home/deleted/pseudo_psl' ,
                      prefix = 'GBr_ip' ,
                   verbosity = 'high' ,
               etot_conv_thr = 1.0D-5 ,
               forc_conv_thr = 4.0D-4 ,
                       nstep = 1000 ,
                    dipfield = .true. ,
 /
 &SYSTEM
                       ibrav = 4,
                           A = 9.88 ,
                           C = 15 ,
                         nat = 34,
                        ntyp = 4,
                     ecutwfc = 40.424239707 ,
                     ecutrho = 404.24239707 ,
                 occupations = 'smearing' ,
                     degauss = 0.01 ,
				   input_dft = 'vdW-DF' ,
 /
 &ELECTRONS
            electron_maxstep = 50001,
                    conv_thr = 1.0D-6 ,
                 mixing_mode = 'local-TF' ,
                 mixing_beta = 0.5 ,
 /
ATOMIC_SPECIES
    C   12.01100  C.revpbe-n-kjpaw_psl.0.1.UPF 
   Br   79.90350  Br.revpbe-n-kjpaw_psl.0.2.UPF 
    O   15.99940  O.revpbe-n-kjpaw_psl.0.1.UPF 
    H   1.008000  H.revpbe-kjpaw_psl.0.1.UPF
ATOMIC_POSITIONS crystal 
C       -0.002336970  -0.003875593   0.003644445
C        0.250242908   0.002903666   0.005272030
C        0.496132267  -0.003832158   0.003322074
C        0.744101880  -0.009601799  -0.001017045
C       -0.006224741   0.242898413   0.007608093
C        0.079592654   0.163119311   0.003529683
C        0.247418710   0.250559707  -0.002308593
C        0.333231582   0.168822891  -0.001721643
C        0.500826486   0.250602300  -0.002109555
C        0.581221229   0.163152022   0.003471486
C        0.746801200   0.242896051   0.007675397
C        0.827020106   0.156323977   0.005840125
C       -0.003409670   0.495568549   0.015541818
C        0.074174881   0.409487281   0.011659875
C        0.237434332   0.494594512   0.004342054
C        0.315557933   0.414237146  -0.006044919
C        0.596310388   0.414251826  -0.005140643
C        0.754760209   0.494635016   0.005171096
C        0.832912887   0.409468924   0.011956691
C        0.003058342   0.749778124   0.011781611
C        0.080617731   0.663680229   0.015266601
C        0.244252613   0.749762664   0.011323526
C        0.322476345   0.664532720   0.004566264
C        0.481098960   0.744970734  -0.005136516
Br       0.538751299   0.579513990  -0.026938437
C        0.761584895   0.744986125  -0.004425410
C        0.839612726   0.664526284   0.005409767
C        0.083463818   0.916302701   0.007444972
C        0.330452375   0.916324475   0.007091966
C        0.576555115   0.908702343  -0.001759758
C        0.829855946   0.908637722  -0.001501726
O        0.531721563   0.560024137   0.138770719
O        0.614321337   0.711599946   0.179751115
H        0.529235200   0.729705649   0.197761906
K_POINTS automatic 
  16 16 1   0 0 0 

