 &CONTROL
                 calculation = 'scf' ,
                      outdir = './tmp/' ,
                  pseudo_dir = '/home/deleted/pseudo_psl' ,
                      prefix = 'GF_op' ,
                   verbosity = 'high' ,
               etot_conv_thr = 1.0D-5 ,
               forc_conv_thr = 4.0D-4 ,
                       nstep = 1000 ,
                    dipfield = .true. ,
 /
 &SYSTEM
                       ibrav = 4,
                           A = 9.88 ,
                           C = 15 ,
                         nat = 33,
                        ntyp = 3,
                     ecutwfc = 40.424239707 ,
                     ecutrho = 404.24239707 ,
                 occupations = 'smearing' ,
                     degauss = 0.01 ,
				   input_dft = 'vdW-DF' ,
    nspin = 2 ,
    starting_magnetization(1) = 0.5,
    starting_magnetization(2) = 0.5,
    starting_magnetization(3) = 0.5,
 /
 &ELECTRONS
            electron_maxstep = 50001,
                    conv_thr = 1.0D-6 ,
                 mixing_mode = 'local-TF' ,
                 mixing_beta = 0.5 ,
 /
ATOMIC_SPECIES
    C   12.01100  C.revpbe-n-kjpaw_psl.0.1.UPF 
    F   18.99800  F.revpbe-n-kjpaw_psl.0.1.UPF 
    O   15.99940  O.revpbe-n-kjpaw_psl.0.1.UPF 
ATOMIC_POSITIONS (crystal)
C        0.003029078   0.003207259  -0.005687156
C        0.252695278   0.005390556  -0.000050338
C        0.500178181   0.003207259  -0.005687156
C        0.751638949   0.003277900  -0.009170498
C        0.000427970   0.251798641  -0.009145366
C        0.084871407   0.169164041   0.000727595
C        0.245959055   0.249003972   0.023133386
C        0.335440320   0.170880643   0.019267685
C        0.503044917   0.249003972   0.023133386
C        0.584292633   0.169164041   0.000727595
C        0.751370671   0.251798641  -0.009145366
C        0.834524286   0.169048574  -0.011138425
C        0.001188919   0.502377837  -0.021226404
C        0.083535850   0.418408177  -0.014836593
C        0.246311985   0.500451927   0.000180419
C        0.300186636   0.411612841   0.054561932
C        0.611426204   0.411612841   0.054561932
C        0.754139943   0.500451927   0.000180419
C        0.834872326   0.418408177  -0.014836593
C        0.002831549   0.753588740  -0.012081895
C        0.084488189   0.668976379  -0.016148524
C        0.250757190   0.753588740  -0.012081895
C        0.332212595   0.666121587  -0.006171249
C        0.492742483   0.760838538  -0.005830508
F        0.584421432   0.668842865  -0.004648463
C        0.768096055   0.760838538  -0.005830508
C        0.833908990   0.666121587  -0.006171249
C        0.085851884   0.920311786  -0.006384950
C        0.334459901   0.920311786  -0.006384950
C        0.585532833   0.920796127  -0.008176370
C        0.835263293   0.920796127  -0.008176370
O        0.604508904   0.463632324   0.127934908
O        0.359123420   0.463632324   0.127934908
K_POINTS automatic 
  16 16 1   0 0 0 

