 &CONTROL
                 calculation = 'nscf' ,
                      outdir = './tmp/' ,
                  pseudo_dir = '/home/deleted/pseudo_psl' ,
                      prefix = 'GI_op' ,
                   verbosity = 'high' ,
               etot_conv_thr = 1.0D-5 ,
               forc_conv_thr = 4.0D-4 ,
                       nstep = 1000 ,
                    dipfield = .true. ,
 /
 &SYSTEM
                       ibrav = 4,
                           A = 9.88 ,
                           C = 15 ,
                         nat = 34,
                        ntyp = 4,
                     ecutwfc = 40.424239707 ,
                     ecutrho = 404.24239707 ,
                 occupations = 'tetrahedra' ,
                     degauss = 0.01 ,
				   input_dft = 'vdW-DF' ,
 /
 &ELECTRONS
            electron_maxstep = 50001,
                    conv_thr = 1.0D-6 ,
                 mixing_mode = 'local-TF' ,
                 mixing_beta = 0.5 ,
 /
ATOMIC_SPECIES
    C   12.01100  C.revpbe-n-kjpaw_psl.0.1.UPF 
    I  126.90400  I.revpbe-n-kjpaw_psl.0.2.UPF 
    O   15.99940  O.revpbe-n-kjpaw_psl.0.1.UPF 
    H   1.008000  H.revpbe-kjpaw_psl.0.1.UPF
ATOMIC_POSITIONS crystal 
C       -0.002056111  -0.001397211  -0.000555730
C        0.244146865  -0.011735785  -0.000574884
C        0.500715195  -0.001385167  -0.001150440
C        0.756883779   0.013637579  -0.001442970
C        0.006920839   0.255174175  -0.001245197
C        0.084340959   0.165831088  -0.000732738
C        0.251319454   0.242630439  -0.000900047
C        0.325358723   0.150658237  -0.000590511
C        0.491431104   0.242658611  -0.001176936
C        0.581607229   0.165843816  -0.001184203
C        0.748402974   0.255167378  -0.001584418
C        0.838151984   0.176148677  -0.001369991
C        0.000341822   0.500506399  -0.002216903
C        0.095405081   0.419981485  -0.001907089
C        0.272815221   0.497858374  -0.002227652
C        0.351152737   0.404741859  -0.001754308
C        0.553719077   0.404737701  -0.001934004
C        0.725247671   0.497850763  -0.002436278
C        0.824771800   0.419969398  -0.002150944
C       -0.013274676   0.744221326  -0.001768782
C        0.081935864   0.663752358  -0.002114672
C        0.257617066   0.744298614  -0.001917776
C        0.356796937   0.666427763  -0.002339143
C        0.528398098   0.759737456  -0.001485825
I        0.606249107   0.695136168   0.210327738
C        0.731141852   0.759591913  -0.000576398
C        0.809801689   0.666316689  -0.002164470
C        0.075288177   0.909197522  -0.000763125
C        0.333983416   0.909202557  -0.001088350
C        0.591011560   0.921977306  -0.001552143
C        0.831036491   0.922012953  -0.000834825
O        0.605998200   0.736925636   0.450379951
O        0.570146713   0.625654580   0.387229496
H        0.666803027   0.620282420   0.378250863
K_POINTS automatic 
  20 20 1   0 0 0 

