 &CONTROL
                 calculation = 'nscf' ,
                      outdir = './tmp/' ,
                  pseudo_dir = '/home/deleted/pseudo_psl' ,
                      prefix = 'GBr_op' ,
                   verbosity = 'high' ,
               etot_conv_thr = 1.0D-5 ,
               forc_conv_thr = 4.0D-4 ,
                       nstep = 1000 ,
                    dipfield = .true. ,
 /
 &SYSTEM
                       ibrav = 4,
                           A = 9.88 ,
                           C = 15 ,
                         nat = 34,
                        ntyp = 4,
                     ecutwfc = 40.424239707 ,
                     ecutrho = 404.24239707 ,
                 occupations = 'tetrahedra' ,
                     degauss = 0.01 ,
				   input_dft = 'vdW-DF' ,
 /
 &ELECTRONS
            electron_maxstep = 50001,
                    conv_thr = 1.0D-6 ,
                 mixing_mode = 'local-TF' ,
                 mixing_beta = 0.5 ,
 /
ATOMIC_SPECIES
    C   12.01100  C.revpbe-n-kjpaw_psl.0.1.UPF 
   Br   79.90350  Br.revpbe-n-kjpaw_psl.0.2.UPF 
    O   15.99940  O.revpbe-n-kjpaw_psl.0.1.UPF 
    H   1.008000  H.revpbe-kjpaw_psl.0.1.UPF
ATOMIC_POSITIONS crystal 
C       -0.004298691   0.000750332  -0.002662348
C        0.241920166  -0.009685149  -0.002084995
C        0.498653293   0.000742790  -0.001980239
C        0.755145454   0.016573763  -0.002513364
C        0.005147652   0.257608139  -0.002645062
C        0.082315426   0.168144337  -0.002557323
C        0.249256415   0.244646967  -0.002595878
C        0.322975496   0.152308539  -0.002075009
C        0.489002735   0.244621990  -0.002083857
C        0.579425847   0.168143076  -0.001925321
C        0.746059562   0.257680353  -0.002213395
C        0.836086659   0.178585244  -0.002349956
C       -0.001750005   0.503071232  -0.002958305
C        0.093795668   0.422348103  -0.003041505
C        0.271256138   0.499799107  -0.003469502
C        0.349929643   0.406567583  -0.003227331
C        0.550428212   0.406633307  -0.002699776
C        0.722157201   0.499982905  -0.002915760
C        0.821992607   0.422372749  -0.002668659
C       -0.015975221   0.746516251  -0.002906860
C        0.079559024   0.665796005  -0.002871219
C        0.255819836   0.746541751  -0.002596062
C        0.355832696   0.668897891  -0.003054034
C        0.527920577   0.762258951  -0.002954136
Br       0.663139926   0.742347295   0.248985056
C        0.728340468   0.762293432  -0.003523226
C        0.806621092   0.668927134  -0.003281465
C        0.072801343   0.911209004  -0.002530216
C        0.331982841   0.911289747  -0.002086093
C        0.589105085   0.924236847  -0.002374347
C        0.828831118   0.924272110  -0.003096249
O        0.482092613   0.548282008   0.204622118
O        0.338423704   0.545618900   0.221496261
H        0.326216430   0.594013060   0.166894986
K_POINTS automatic  
  20 20 1   0 0 0 

