 &CONTROL
                 calculation = 'scf' ,
                      outdir = './tmp_subs/' ,
                  pseudo_dir = '/home/deleted/pseudo_psl' ,
                      prefix = 'GCl_ip_subs' ,
                   verbosity = 'high' ,
               etot_conv_thr = 1.0D-5 ,
               forc_conv_thr = 4.0D-4 ,
                       nstep = 1000 ,
                    dipfield = .true. ,
 /
 &SYSTEM
                       ibrav = 4,
                           A = 9.88 ,
                           C = 15 ,
                         nat = 31,
                        ntyp = 2,
                     ecutwfc = 40.424239707 ,
                     ecutrho = 404.24239707 ,
                 occupations = 'smearing' ,
                     degauss = 0.01 ,
				   input_dft = 'vdW-DF' ,
 /
 &ELECTRONS
            electron_maxstep = 50001,
                    conv_thr = 1.0D-6 ,
                 mixing_mode = 'local-TF' ,
                 mixing_beta = 0.5 ,
 /
ATOMIC_SPECIES
    C   12.01100  C.revpbe-n-kjpaw_psl.0.1.UPF 
   Cl   35.45200  Cl.revpbe-n-kjpaw_psl.0.3.0.UPF 
ATOMIC_POSITIONS crystal 
C        0.006968315   0.012683072  -0.000119813
C        0.259494347   0.018988694  -0.001019350
C        0.505714758   0.012683072  -0.000119813
C        0.753889421   0.007778841   0.000760459
C        0.003836315   0.260247809  -0.000569334
C        0.089559085   0.180176649   0.000089526
C        0.258038633   0.267855365   0.001443519
C        0.342645842   0.185291686   0.000690078
C        0.509816732   0.267855365   0.001443519
C        0.590617563   0.180176649   0.000089526
C        0.756411494   0.260247809  -0.000569334
C        0.837031057   0.174062114  -0.000442853
C        0.006220701   0.512441402  -0.002240959
C        0.084442046   0.426737093  -0.001217834
C        0.248744782   0.511714181   0.002055087
C        0.328542150   0.432265136   0.005080119
C        0.603722985   0.432265136   0.005080119
C        0.762969399   0.511714181   0.002055087
C        0.842295047   0.426737093  -0.001217834
C        0.011979137   0.766159094  -0.000914141
C        0.090203071   0.680406143  -0.001894159
C        0.254179957   0.766159094  -0.000914141
C        0.333412838   0.681023231   0.001816749
C        0.492939419   0.760487969   0.003531819
Cl       0.550032888   0.600065777   0.008319033
C        0.767548549   0.760487969   0.003531819
C        0.847610392   0.681023231   0.001816749
C        0.092694061   0.932696955  -0.000865639
C        0.340002894   0.932696955  -0.000865639
C        0.586741122   0.925051984   0.000941057
C        0.838310861   0.925051984   0.000941057
K_POINTS automatic 
  16 16 1   0 0 0 

