 &CONTROL
                 calculation = 'nscf' ,
                      outdir = './tmp/' ,
                  pseudo_dir = '/home/deleted/pseudo_psl' ,
                      prefix = 'GBr_ip' ,
                   verbosity = 'high' ,
               etot_conv_thr = 1.0D-5 ,
               forc_conv_thr = 4.0D-4 ,
                       nstep = 1000 ,
                    dipfield = .true. ,
 /
 &SYSTEM
                       ibrav = 4,
                           A = 9.88 ,
                           C = 15 ,
                         nat = 32,
                        ntyp = 3,
                     ecutwfc = 40.424239707 ,
                     ecutrho = 404.24239707 ,
                 occupations = 'tetrahedra' ,
                     degauss = 0.01 ,
				   input_dft = 'vdW-DF' ,
 /
 &ELECTRONS
            electron_maxstep = 50001,
                    conv_thr = 1.0D-6 ,
                 mixing_mode = 'local-TF' ,
                 mixing_beta = 0.5 ,
 /
ATOMIC_SPECIES
    C   12.01100  C.revpbe-n-kjpaw_psl.0.1.UPF 
   Br   79.90350  Br.revpbe-n-kjpaw_psl.0.2.UPF 
    O   15.99940  O.revpbe-n-kjpaw_psl.0.1.UPF 
ATOMIC_POSITIONS crystal 
C        0.001990085   0.002367499  -0.002469239
C        0.254711246   0.009422492  -0.005871489
C        0.500377415   0.002367499  -0.002469239
C        0.748331950  -0.003336100   0.002779689
C       -0.001861115   0.249252867  -0.007607545
C        0.084027864   0.169671965  -0.002473722
C        0.252089820   0.257245548   0.004022405
C        0.337688367   0.175376735   0.002758831
C        0.505155729   0.257245548   0.004022405
C        0.585644101   0.169671965  -0.002473722
C        0.751113982   0.249252867  -0.007607545
C        0.831308831   0.162617662  -0.005857527
C        0.001100720   0.502201441  -0.018177349
C        0.078850311   0.416131509  -0.012662082
C        0.241173278   0.501146306  -0.001665149
C        0.319081258   0.420687579   0.012032019
C        0.601606320   0.420687579   0.012032019
C        0.759973027   0.501146306  -0.001665149
C        0.837281197   0.416131509  -0.012662082
C        0.007172984   0.755913544  -0.012664718
C        0.084923600   0.669847202  -0.018180719
C        0.248740561   0.755913544  -0.012664718
C        0.326050788   0.670893064  -0.001665507
C        0.484413007   0.751347554   0.012038677
Br       0.543005950   0.586011901   0.029873298
C        0.766934547   0.751347554   0.012038677
C        0.844842275   0.670893064  -0.001665507
C        0.087879149   0.922788734  -0.007613307
C        0.334909583   0.922788734  -0.007613307
C        0.580861809   0.914789485   0.004039357
C        0.833927676   0.914789485   0.004039357
O        0.543014668   0.586029337   0.146052884
K_POINTS automatic 
  20 20 1   0 0 0 

