 &CONTROL
                 calculation = 'scf' ,
                      outdir = './tmp/' ,
                  pseudo_dir = '/home/deleted/pseudo_psl' ,
                      prefix = 'MVG_ip' ,
                   verbosity = 'high' ,
               etot_conv_thr = 1.0D-5 ,
               forc_conv_thr = 4.0D-4 ,
                       nstep = 1000 ,
                    dipfield = .true. ,
 /
 &SYSTEM
                       ibrav = 4,
                           A = 9.88 ,
                           C = 15 ,
                         nat = 31,
                        ntyp = 1,
                     ecutwfc = 40.424239707 ,
                     ecutrho = 404.24239707 ,
                 occupations = 'smearing' ,
                     degauss = 0.01 ,
				   input_dft = 'vdW-DF' ,
    nspin = 2 ,
    starting_magnetization(1) = 0.5,
 /
 &ELECTRONS
            electron_maxstep = 50001,
                    conv_thr = 1.0D-6 ,
                 mixing_mode = 'local-TF' ,
                 mixing_beta = 0.5 ,
 /
ATOMIC_SPECIES
    C   12.01100  C.revpbe-n-kjpaw_psl.0.1.UPF 
ATOMIC_POSITIONS (crystal)
C        0.000221153  -0.000221153  -0.000000000
C        0.250180197   0.000360395  -0.000000000
C        0.499557694  -0.000221153  -0.000000000
C        0.749865398  -0.000269204   0.000000000
C        0.000269204   0.250134602  -0.000000000
C        0.083522801   0.167143775   0.000000000
C        0.252578400   0.251850199  -0.000000000
C        0.332662894   0.165325789   0.000000000
C        0.499271799   0.251850199  -0.000000000
C        0.583620973   0.167143775  -0.000000000
C        0.749865398   0.250134602  -0.000000000
C        0.833333333   0.166666667   0.000000000
C        0.000221153   0.500442306   0.000000000
C        0.083522801   0.416379027   0.000000000
C        0.252578400   0.500728201   0.000000000
C        0.328843901   0.414421951  -0.000000000
C        0.585578049   0.414421951   0.000000000
C        0.748149801   0.500728201  -0.000000000
C        0.832856225   0.416379027   0.000000000
C       -0.000360395   0.749819803   0.000000000
C        0.083238920   0.666477840  -0.000000000
C        0.250180197   0.749819803  -0.000000000
C        0.332662894   0.667337106  -0.000000000
C        0.499271799   0.747421600  -0.000000000
C        0.748149801   0.747421600   0.000000000
C        0.834674211   0.667337106  -0.000000000
C        0.083238920   0.916761080   0.000000000
C        0.333522160   0.916761080  -0.000000000
C        0.583620973   0.916477199  -0.000000000
C        0.832856225   0.916477199  -0.000000000
C        0.585578049   0.671156099  -0.000000000
K_POINTS automatic 
  16 16 1   0 0 0 

