 &CONTROL
                 calculation = 'nscf' ,
                      outdir = './tmp/' ,
                  pseudo_dir = '/home/deleted/pseudo_psl' ,
                      prefix = 'MVG_tlh' ,
                    dipfield = .true. ,
                   verbosity = 'high',
                       nstep = 1000,
               forc_conv_thr = 4.0D-4,
               etot_conv_thr = 1.0D-5
 /
 &SYSTEM
                       ibrav = 4,
                           A = 9.88 ,
                           C = 15 ,
                         nat = 33,
                        ntyp = 2,
                     ecutwfc = 40.424239707 ,
                     ecutrho = 404.24239707 ,
                 occupations = 'tetrahedra' ,
                     degauss = 0.01 ,
				   input_dft = 'vdW-DF' ,
    nspin = 2 ,
    starting_magnetization(1) = 0.5,
	starting_magnetization(2) = 0.5,
 /
 &ELECTRONS
            electron_maxstep = 50001,
                    conv_thr = 1.0D-6 ,
                 mixing_mode = 'local-TF' ,
                 mixing_beta = 0.5 ,
 /
 &IONS
                ion_dynamics = 'bfgs' ,
 /
ATOMIC_SPECIES
    C   12.01100  C.revpbe-n-kjpaw_psl.0.1.UPF 
    O   15.99940  O.revpbe-n-kjpaw_psl.0.1.UPF 
ATOMIC_POSITIONS crystal 
C       -0.004880722   0.004880722   0.000185080
C        0.244948100   0.005078306   0.003324075
C        0.494572186   0.004864743   0.000109343
C        0.744888258   0.004945184  -0.001421571
C       -0.004945184   0.255111742  -0.001421571
C        0.078373925   0.171986831  -0.000701935
C        0.246045953   0.255036495   0.001630482
C        0.327780749   0.170707044   0.003277019
C        0.493860294   0.254992869   0.001630608
C        0.578464251   0.171954379  -0.000790098
C        0.744908705   0.255091295  -0.001511338
C        0.828285919   0.171714081  -0.001706621
C       -0.004864743   0.505427814   0.000109343
C        0.078358929   0.421553469  -0.000726079
C        0.246017898   0.506167308   0.001629758
C        0.322014714   0.418593850   0.001065963
C        0.581469109   0.418530891   0.001157836
C        0.745007131   0.506139706   0.001630608
C        0.828045621   0.421535749  -0.000790098
C       -0.005078306   0.755051900   0.003324075
C        0.078245476   0.671670336   0.002712239
C        0.244947645   0.755052355   0.003323095
C        0.327757862   0.672242138   0.003291891
C        0.493832692   0.753982102   0.001629758
C        0.581406150   0.677985286   0.001065963
C        0.744963505   0.753954047   0.001630482
C        0.829292956   0.672219251   0.003277019
C        0.078244631   0.921755369   0.002762581
C        0.328329664   0.921754524   0.002712239
C        0.578446531   0.921641071  -0.000726079
C        0.828013169   0.921626075  -0.000701935
O        0.494950146   0.505049853   0.024294637
O        0.494963450   0.505036549   0.144723232
K_POINTS automatic 
  20 20 1   0 0 0 

