 &CONTROL
                 calculation = 'scf' ,
                      outdir = './tmp/' ,
                  pseudo_dir = '/home/deleted/pseudo_psl' ,
                      prefix = 'GCl_op' ,
                   verbosity = 'high' ,
               etot_conv_thr = 1.0D-5 ,
               forc_conv_thr = 4.0D-4 ,
                       nstep = 1000 ,
                    dipfield = .true. ,
 /
 &SYSTEM
                       ibrav = 4,
                           A = 9.88 ,
                           C = 15 ,
                         nat = 33,
                        ntyp = 3,
                     ecutwfc = 40.424239707 ,
                     ecutrho = 404.24239707 ,
                 occupations = 'smearing' ,
                     degauss = 0.01 ,
				   input_dft = 'vdW-DF' ,
    nspin = 2 ,
    starting_magnetization(1) = 0.5,
    starting_magnetization(2) = 0.5,
    starting_magnetization(3) = 0.5,
 /
 &ELECTRONS
            electron_maxstep = 50001,
                    conv_thr = 1.0D-6 ,
                 mixing_mode = 'local-TF' ,
                 mixing_beta = 0.5 ,
 /
ATOMIC_SPECIES
    C   12.01100  C.revpbe-n-kjpaw_psl.0.1.UPF 
   Cl   35.45200  Cl.revpbe-n-kjpaw_psl.0.3.0.UPF 
    O   15.99940  O.revpbe-n-kjpaw_psl.0.1.UPF 
ATOMIC_POSITIONS (crystal)
C        0.001718340   0.000684849  -0.004387733
C        0.247002417  -0.005995167  -0.012967013
C        0.498966508   0.000684849  -0.004387733
C        0.752775016   0.005550032   0.014653259
C        0.002695674   0.251025825  -0.003382234
C        0.085024713   0.167097971  -0.007885503
C        0.252314132   0.246820394  -0.012212776
C        0.328614625   0.157229250  -0.014476612
C        0.494506262   0.246820394  -0.012212776
C        0.582073257   0.167097971  -0.007885503
C        0.748330151   0.251025825  -0.003382234
C        0.834703170   0.169406341   0.002401133
C       -0.000839950   0.498320101  -0.004916845
C        0.088861975   0.416619568  -0.004258008
C        0.262523757   0.497202851  -0.002143203
C        0.345072185   0.409068403  -0.008084370
C        0.563996217   0.409068403  -0.008084370
C        0.734679093   0.497202851  -0.002143203
C        0.827757592   0.416619568  -0.004258008
C       -0.003189395   0.746199969  -0.007086267
C        0.081696896   0.663393793  -0.009201949
C        0.249389363   0.746199969  -0.007086267
C        0.335713989   0.665015678   0.004942957
C        0.493748277   0.761341332   0.025016646
Cl       0.591290594   0.682581190   0.088123171
C        0.767593056   0.761341332   0.025016646
C        0.829301688   0.665015678   0.004942957
C        0.080182372   0.912535066  -0.008998925
C        0.332352694   0.912535066  -0.008998925
C        0.584751095   0.922766023   0.013498733
C        0.838014927   0.922766023   0.013498733
O        0.628519269   0.757038539   0.315527508
O        0.556765666   0.613531335   0.296620228
K_POINTS automatic 
  16 16 1   0 0 0 

