&PROJWFC
  outdir = './tmp',
  prefix = 'MVGB1',
  filpdos = 'MVGB1-pdos',
  ngauss = 1,
  degauss = 0.01,
  DeltaE = 0.01,
  lsym = .true.
/
