 &CONTROL
                 calculation = 'scf' ,
                      outdir = './tmp/' ,
                  pseudo_dir = '/home/deleted/pseudo_psl' ,
                      prefix = 'PG_tc' ,
                    dipfield = .true. ,
                   verbosity = 'high',
                       nstep = 1000,
               forc_conv_thr = 4.0D-4,
               etot_conv_thr = 1.0D-5
 /
 &SYSTEM
                       ibrav = 4,
                           A = 9.88 ,
                           C = 15 ,
                         nat = 34,
                        ntyp = 2,
                     ecutwfc = 40.424239707 ,
                     ecutrho = 404.24239707 ,
                 occupations = 'smearing' ,
                     degauss = 0.01 ,
				   input_dft = 'vdW-DF' ,
    nspin = 2 ,
    starting_magnetization(1) = 0.5,
	starting_magnetization(2) = 0.5,
 /
 &ELECTRONS
            electron_maxstep = 50001,
                    conv_thr = 1.0D-6 ,
                 mixing_mode = 'local-TF' ,
                 mixing_beta = 0.5 ,
 /
ATOMIC_SPECIES
    C   12.01100  C.revpbe-n-kjpaw_psl.0.1.UPF 
    O   15.99940  O.revpbe-n-kjpaw_psl.0.1.UPF 
ATOMIC_POSITIONS crystal 
C        0.000453601   0.000919402  -0.006685703
C        0.250465802   0.000919402  -0.006685703
C        0.500469478   0.000917789  -0.006925079
C        0.750448311   0.000917789  -0.006925079
C        0.000468850   0.250938237  -0.006793420
C        0.083796117   0.167594464  -0.006773582
C        0.250469436   0.250938873  -0.006983023
C        0.333798346   0.167594464  -0.006773582
C        0.500469388   0.250938237  -0.006793420
C        0.583799006   0.167595867  -0.006659042
C        0.750463288   0.250926577  -0.006661915
C        0.833796861   0.167595867  -0.006659042
C        0.000471499   0.500941852  -0.006985760
C        0.083819783   0.417614090  -0.007120927
C        0.250481547   0.500958134  -0.007594539
C        0.333805726   0.417611454  -0.007440671
C        0.500476587   0.500958134  -0.007594539
C        0.583794306   0.417614090  -0.007120927
C        0.750470354   0.500941852  -0.006985760
C        0.833804513   0.417609027  -0.006784350
C        0.000462238   0.750924477  -0.006812621
C        0.083820724   0.667611456  -0.007002370
C        0.250479809   0.750931323  -0.007317053
C        0.333846072   0.667634050  -0.007963065
C        0.500469946   0.750939891  -0.008290636
C        0.583787977   0.667634050  -0.007963065
C        0.750451513   0.750931323  -0.007317053
C        0.833790731   0.667611456  -0.007002370
C        0.083799735   0.917599472  -0.006700101
C        0.333804949   0.917589564  -0.006938006
C        0.583790572   0.917581146  -0.007464213
C        0.833784614   0.917589564  -0.006938006
O        0.555336093   0.735021650   0.213327311
O        0.429685557   0.735021650   0.213327311
K_POINTS automatic 
  16 16 1   0 0 0 

