 &CONTROL
                 calculation = 'relax' ,
                      outdir = './tmp/' ,
                  pseudo_dir = '/home/deleted/pseudo_psl' ,
                      prefix = 'MVG_tc' ,
                   verbosity = 'high' ,
               etot_conv_thr = 1.0D-5 ,
               forc_conv_thr = 4.0D-4 ,
                       nstep = 1000 ,
                    dipfield = .true. ,
 /
 &SYSTEM
                       ibrav = 4,
                           A = 9.88 ,
                           C = 15 ,
                         nat = 33,
                        ntyp = 2,
                     ecutwfc = 40.424239707 ,
                     ecutrho = 404.24239707 ,
                 occupations = 'smearing' ,
                     degauss = 0.01 ,
				   input_dft = 'vdW-DF' ,
    nspin = 2 ,
    starting_magnetization(1) = 0.5,
	starting_magnetization(2) = 0.5,
 /
 &ELECTRONS
            electron_maxstep = 50001,
                    conv_thr = 1.0D-6 ,
                 mixing_mode = 'local-TF' ,
                 mixing_beta = 0.5 ,
 /
 &IONS
                ion_dynamics = 'bfgs' ,
 /
ATOMIC_SPECIES
    C   12.01100  C.revpbe-n-kjpaw_psl.0.1.UPF 
    O   15.99940  O.revpbe-n-kjpaw_psl.0.1.UPF 
ATOMIC_POSITIONS crystal 
C        0.000750669   0.009178386  -0.012290394
C        0.247008201   0.004353853  -0.016120620
C        0.498964942   0.008286461  -0.010002024
C        0.752288752   0.014033425  -0.000427878
C        0.002659650   0.260166468  -0.009627972
C        0.084626218   0.175959842  -0.013629088
C        0.252115499   0.257823705  -0.013635680
C        0.328971219   0.168002507  -0.017305284
C        0.495780704   0.256291390  -0.015056598
C        0.581956909   0.174703137  -0.014388921
C        0.748204692   0.260277731  -0.011374649
C        0.834082387   0.177812947  -0.009153876
C       -0.000979142   0.507682280  -0.005490644
C        0.087580077   0.425441411  -0.004238932
C        0.259797176   0.507889284   0.001376416
C        0.339019236   0.419035688  -0.004640904
C        0.570411712   0.417718375  -0.008933492
C        0.737726952   0.507788426  -0.002674940
C        0.828307724   0.425726498  -0.008230087
C       -0.004753523   0.755418561  -0.007239183
C        0.081213825   0.672575069  -0.006826570
C        0.249833144   0.756250319  -0.003501525
C        0.336802486   0.676501749   0.009254280
C        0.501116442   0.766053940   0.021815988
C        0.599090051   0.706575209   0.055163848
C        0.755927364   0.767981263   0.019150281
C        0.828678963   0.676685666   0.005132781
C        0.079592049   0.921693907  -0.013396595
C        0.332052472   0.922319736  -0.009912635
C        0.584102566   0.928735956   0.003262371
C        0.836021133   0.930109715   0.000796149
O        0.573564252   0.629997666   0.131170037
O        0.429360748   0.572440538   0.170976340
K_POINTS automatic 
  4 4 1   0 0 0 

