 &CONTROL
                 calculation = 'nscf' ,
                      outdir = './tmp/' ,
                  pseudo_dir = '/home/deleted/pseudo_psl' ,
                      prefix = 'GF_op' ,
                   verbosity = 'high' ,
               etot_conv_thr = 1.0D-5 ,
               forc_conv_thr = 4.0D-4 ,
                       nstep = 1000 ,
                    dipfield = .true. ,
 /
 &SYSTEM
                       ibrav = 4,
                           A = 9.88 ,
                           C = 15 ,
                         nat = 32,
                        ntyp = 3,
                     ecutwfc = 40.424239707 ,
                     ecutrho = 404.24239707 ,
                 occupations = 'tetrahedra' ,
                     degauss = 0.01 ,
				   input_dft = 'vdW-DF' ,
 /
 &ELECTRONS
            electron_maxstep = 50001,
                    conv_thr = 1.0D-6 ,
                 mixing_mode = 'local-TF' ,
                 mixing_beta = 0.5 ,
 /
ATOMIC_SPECIES
    C   12.01100  C.revpbe-n-kjpaw_psl.0.1.UPF 
    F   18.99800  F.revpbe-n-kjpaw_psl.0.1.UPF 
    O   15.99940  O.revpbe-n-kjpaw_psl.0.1.UPF 
ATOMIC_POSITIONS crystal 
C       -0.004615011   0.001835345   0.004450744
C        0.244228095   0.000222566   0.012180193
C        0.494913093   0.002211261   0.009677879
C        0.746592062   0.004291723  -0.002209424
C       -0.003483010   0.252844223   0.006280625
C        0.077738691   0.168101833   0.009605295
C        0.244052656   0.248989344   0.013501554
C        0.326721629   0.164947293   0.012504964
C        0.493435564   0.249253894   0.009224689
C        0.578596511   0.168249306   0.006263282
C        0.744832916   0.252599063   0.004815764
C        0.829151026   0.169419627   0.002394134
C       -0.004841547   0.501907679   0.008625409
C        0.081112905   0.419010155   0.010851884
C        0.249711788   0.501417763   0.016963167
C        0.327597261   0.412962468   0.015591026
C        0.573920806   0.413179990   0.006792128
C        0.740125609   0.501409000  -0.001253203
C        0.826559280   0.418836089   0.004013288
C       -0.006368357   0.751457059   0.007065114
C        0.077768930   0.667830409   0.012213062
C        0.245417133   0.751318424   0.015718749
C        0.333543022   0.670496935   0.020216386
C        0.495582103   0.759858892   0.026857909
F        0.644038846   0.700188821  -0.095789253
C        0.759962557   0.761145947  -0.031732329
C        0.827612234   0.669710555  -0.007613240
C        0.077572610   0.917687234   0.008184091
C        0.328550060   0.917519637   0.013609651
C        0.579486995   0.919149779   0.009817611
C        0.830802353   0.921686061  -0.010784023
O        0.489681186   0.490261627   0.015296209
K_POINTS automatic 
  20 20 1   0 0 0 

