 &CONTROL
                 calculation = 'bands' ,
                      outdir = './tmp/' ,
                  pseudo_dir = '/home/deleted/pseudo_psl' ,
                      prefix = 'GCl_ip' ,
                   verbosity = 'high' ,
               etot_conv_thr = 1.0D-5 ,
               forc_conv_thr = 4.0D-4 ,
                       nstep = 1000 ,
                    dipfield = .true. ,
 /
 &SYSTEM
                       ibrav = 4,
                           A = 9.88 ,
                           C = 15 ,
                         nat = 32,
                        ntyp = 3,
                     ecutwfc = 40.424239707 ,
                     ecutrho = 404.24239707 ,
                 occupations = 'tetrahedra' ,
                     degauss = 0.01 ,
				   input_dft = 'vdW-DF' ,
    nspin = 2 ,
    starting_magnetization(1) = 0.5,
    starting_magnetization(2) = 0.5,
    starting_magnetization(3) = 0.5,
 /
 &ELECTRONS
            electron_maxstep = 50001,
                    conv_thr = 1.0D-6 ,
                 mixing_mode = 'local-TF' ,
                 mixing_beta = 0.5 ,
 /
ATOMIC_SPECIES
    C   12.01100  C.revpbe-n-kjpaw_psl.0.1.UPF 
   Cl   35.45200  Cl.revpbe-n-kjpaw_psl.0.3.0.UPF 
    O   15.99940  O.revpbe-n-kjpaw_psl.0.1.UPF 
ATOMIC_POSITIONS (crystal)
C        0.001055594   0.006322711   0.010478864
C        0.250335097   0.004952525  -0.001628534
C        0.501036952   0.006363013   0.010289735
C        0.753088523   0.010435651   0.022610494
C        0.002270018   0.257709079   0.010751965
C        0.083051515   0.171977086   0.004662871
C        0.246256855   0.250892596  -0.014994209
C        0.332415745   0.169122730  -0.015582411
C        0.500349459   0.250898006  -0.015075844
C        0.584694290   0.172002338   0.004475324
C        0.751207885   0.257714664   0.010610232
C        0.835441709   0.175129811   0.016580062
C        0.001726302   0.507699253   0.012283347
C        0.085262830   0.424225965   0.009353430
C        0.252812746   0.507141216  -0.002490350
C        0.315127689   0.412706667  -0.026860552
C        0.593241961   0.412722201  -0.026885154
C        0.750009658   0.507096002  -0.002537064
C        0.834710517   0.424220359   0.009280109
C       -0.000433361   0.756565956   0.007860098
C        0.084862961   0.674015114   0.007727237
C        0.252714757   0.756620996   0.007836442
C        0.340557103   0.674520635   0.008806652
C        0.504959385   0.762092655   0.021995246
Cl       0.492053465   0.488470423  -0.091581458
C        0.752769621   0.762034880   0.022088649
C        0.829598158   0.674470159   0.008816015
C        0.083591335   0.922378494   0.005628696
C        0.334548428   0.922427139   0.005533097
C        0.586161155   0.926215541   0.020573423
C        0.835765781   0.926171806   0.020694755
O        0.590923639   0.686200836   0.038698832
K_POINTS automatic 
  20 20 1   0 0 0 

