 &CONTROL
                 calculation = 'scf' ,
                      outdir = './tmp_subs/' ,
                  pseudo_dir = '/home/deleted/pseudo_psl' ,
                      prefix = 'GF_op-subs' ,
                   verbosity = 'high' ,
               etot_conv_thr = 1.0D-5 ,
               forc_conv_thr = 4.0D-4 ,
                       nstep = 1000 ,
                    dipfield = .true. ,
 /
 &SYSTEM
                       ibrav = 4,
                           A = 9.88 ,
                           C = 15 ,
                         nat = 31,
                        ntyp = 2,
                     ecutwfc = 40.424239707 ,
                     ecutrho = 404.24239707 ,
                 occupations = 'smearing' ,
                     degauss = 0.01 ,
				   input_dft = 'vdW-DF' ,
    nspin = 2 ,
    starting_magnetization(1) = 0.5,
    starting_magnetization(2) = 0.5,
 /
 &ELECTRONS
            electron_maxstep = 50001,
                    conv_thr = 1.0D-6 ,
                 mixing_mode = 'local-TF' ,
                 mixing_beta = 0.5 ,
 /
ATOMIC_SPECIES
    C   12.01100  C.revpbe-n-kjpaw_psl.0.1.UPF 
    F   18.99800  F.revpbe-n-kjpaw_psl.0.1.UPF 
ATOMIC_POSITIONS (crystal)
C        0.002429839   0.000736468   0.001311317
C        0.246256255  -0.007487490  -0.000209561
C        0.498306629   0.000736468   0.001311317
C        0.753186178   0.006372358   0.005087676
C        0.003403005   0.251419430   0.002632859
C        0.085427858   0.166933523   0.001232317
C        0.252178255   0.245265257   0.000212239
C        0.327629187   0.155258376  -0.000352100
C        0.493087003   0.245265257   0.000212239
C        0.581505663   0.166933523   0.001232317
C        0.748016425   0.251419430   0.002632859
C        0.835262955   0.170525911   0.003718970
C       -0.001047000   0.497905998   0.002195040
C        0.089869608   0.416664365   0.002380975
C        0.264264391   0.495897448   0.002184381
C        0.346966804   0.407266926   0.000978884
C        0.560300121   0.407266926   0.000978884
C        0.731633058   0.495897448   0.002184381
C        0.826794755   0.416664365   0.002380975
C       -0.003893431   0.745445938   0.000969914
C        0.081495953   0.662991907   0.000981098
C        0.249339370   0.745445938   0.000969914
C        0.337472906   0.663777706   0.002638431
C        0.496673153   0.763430769   0.004379477
F        0.589309165   0.678618331   0.015437743
C        0.766757616   0.763430769   0.004379477
C        0.826304799   0.663777706   0.002638431
C        0.079644396   0.911540268   0.000439262
C        0.331895871   0.911540268   0.000439262
C        0.586898060   0.923085700   0.004091121
C        0.836187639   0.923085700   0.004091121
K_POINTS automatic 
  16 16 1   0 0 0 

