 &CONTROL
                 calculation = 'bands' ,
                      outdir = './tmp/' ,
                  pseudo_dir = '/home/deleted/pseudo_psl' ,
                      prefix = 'GBr_ip' ,
                   verbosity = 'high' ,
               etot_conv_thr = 1.0D-5 ,
               forc_conv_thr = 4.0D-4 ,
                       nstep = 1000 ,
                    dipfield = .true. ,
 /
 &SYSTEM
                       ibrav = 4,
                           A = 9.88 ,
                           C = 15 ,
                         nat = 32,
                        ntyp = 3,
                     ecutwfc = 40.424239707 ,
                     ecutrho = 404.24239707 ,
                 occupations = 'tetrahedra' ,
                     degauss = 0.01 ,
				   input_dft = 'vdW-DF' ,
 /
 &ELECTRONS
            electron_maxstep = 50001,
                    conv_thr = 1.0D-6 ,
                 mixing_mode = 'local-TF' ,
                 mixing_beta = 0.5 ,
 /
ATOMIC_SPECIES
    C   12.01100  C.revpbe-n-kjpaw_psl.0.1.UPF 
   Br   79.90350  Br.revpbe-n-kjpaw_psl.0.2.UPF 
    O   15.99940  O.revpbe-n-kjpaw_psl.0.1.UPF 
ATOMIC_POSITIONS crystal 
C        0.007034622   0.011734382  -0.001548282
C        0.251472922   0.002945843  -0.001740154
C        0.504699761   0.011734382  -0.001548282
C        0.759368885   0.018737769  -0.002371094
C        0.009968460   0.263780942  -0.001002663
C        0.090948248   0.178101894  -0.000744922
C        0.257496343   0.256175657  -0.000845098
C        0.333113474   0.166226949  -0.001221188
C        0.498679315   0.256175657  -0.000845098
C        0.587153645   0.178101894  -0.000744922
C        0.753812482   0.263780942  -0.001002663
C        0.841726768   0.183453537  -0.001046760
C        0.005233172   0.510466345  -0.003106036
C        0.097512195   0.429256174  -0.002452203
C        0.272366465   0.509253294  -0.003467835
C        0.354548668   0.418467412  -0.000924761
C        0.563918742   0.418467412  -0.000924761
C        0.736886829   0.509253294  -0.003467835
C        0.831743979   0.429256174  -0.002452203
C       -0.000801687   0.756764337  -0.003508946
C        0.087662909   0.675325820  -0.003473898
C        0.257566025   0.756764337  -0.003508946
C        0.347515214   0.677018249  -0.004745231
C        0.513445755   0.770654428  -0.005834479
Br       0.495695033   0.491390068   0.184456433
C        0.757208673   0.770654428  -0.005834479
C        0.829503034   0.677018249  -0.004745231
C        0.084630941   0.922839975  -0.002263272
C        0.338209033   0.922839975  -0.002263272
C        0.592589100   0.934006577  -0.003051979
C        0.841417476   0.934006577  -0.003051979
O        0.597673515   0.695347029  -0.010717958
K_POINTS crystal_b 
4
0.0000000000    0.0000000000    0.0000000000 17
0.0000000000    0.5000000000    0.0000000000 10
0.3333333333    0.3333333333    0.0000000000 20
0.0000000000    0.0000000000    0.0000000000 1

