 &CONTROL
                 calculation = 'scf' ,
                      outdir = './tmp_subs/' ,
                  pseudo_dir = '/home/deleted/pseudo_psl' ,
                      prefix = 'GBr_ip-subs' ,
                   verbosity = 'high' ,
               etot_conv_thr = 1.0D-5 ,
               forc_conv_thr = 4.0D-4 ,
                       nstep = 1000 ,
                    dipfield = .true. ,
 /
 &SYSTEM
                       ibrav = 4,
                           A = 9.88 ,
                           C = 15 ,
                         nat = 31,
                        ntyp = 2,
                     ecutwfc = 40.424239707 ,
                     ecutrho = 404.24239707 ,
                 occupations = 'smearing' ,
                     degauss = 0.01 ,
				   input_dft = 'vdW-DF' ,
    nspin = 2 ,
    starting_magnetization(1) = 0.5,
    starting_magnetization(2) = 0.5,
 /
 &ELECTRONS
            electron_maxstep = 50001,
                    conv_thr = 1.0D-6 ,
                 mixing_mode = 'local-TF' ,
                 mixing_beta = 0.5 ,
 /
ATOMIC_SPECIES
    C   12.01100  C.revpbe-n-kjpaw_psl.0.1.UPF 
   Br   79.90350  Br.revpbe-n-kjpaw_psl.0.2.UPF 
ATOMIC_POSITIONS (crystal)
C        0.003412898   0.005901773  -0.003216310
C        0.255871615   0.012523621  -0.000034737
C        0.501703786   0.005800022  -0.003977783
C        0.749870119   0.000592863  -0.010486099
C       -0.000431802   0.252872857   0.001507425
C        0.085291509   0.173017679  -0.003860189
C        0.252863155   0.259962615  -0.012342899
C        0.338681476   0.178223894  -0.010156370
C        0.506265658   0.259933979  -0.011149953
C        0.586934186   0.172921079  -0.003235402
C        0.752505327   0.252820767   0.002325294
C        0.832752530   0.166295092  -0.000241853
C        0.002434546   0.505397315   0.012922696
C        0.080319632   0.419628463   0.006215569
C        0.242890405   0.504465023  -0.007139879
C        0.319216398   0.422979366  -0.022006750
C        0.602835084   0.423206861  -0.018604776
C        0.760439635   0.504414684  -0.003329215
C        0.838551729   0.419462127   0.008051001
C        0.008474933   0.759381684   0.008157278
C        0.086475349   0.673484334   0.012978195
C        0.250115172   0.759252142   0.006090307
C        0.327825110   0.674462854  -0.007453752
C        0.485505325   0.755939444  -0.022850641
Br       0.544784160   0.589371244  -0.046509758
C        0.769135693   0.755649853  -0.018951068
C        0.845454338   0.674428670  -0.003379212
C        0.089093110   0.926025259   0.002481940
C        0.336138281   0.925975101   0.001496415
C        0.582274640   0.918832295  -0.012769432
C        0.835767077   0.918901355  -0.011374306
K_POINTS automatic 
  16 16 1   0 0 0 

