 &CONTROL
                 calculation = 'scf' ,
                      outdir = './tmp_subs/' ,
                  pseudo_dir = '/home/deleted/pseudo_psl' ,
                      prefix = 'GCl_op-subs' ,
                   verbosity = 'high' ,
               etot_conv_thr = 1.0D-5 ,
               forc_conv_thr = 4.0D-4 ,
                       nstep = 1000 ,
                    dipfield = .true. ,
 /
 &SYSTEM
                       ibrav = 4,
                           A = 9.88 ,
                           C = 15 ,
                         nat = 31,
                        ntyp = 2,
                     ecutwfc = 40.424239707 ,
                     ecutrho = 404.24239707 ,
                 occupations = 'smearing' ,
                     degauss = 0.01 ,
				   input_dft = 'vdW-DF' ,
    nspin = 2 ,
    starting_magnetization(1) = 0.5,
    starting_magnetization(2) = 0.5,
 /
 &ELECTRONS
            electron_maxstep = 50001,
                    conv_thr = 1.0D-6 ,
                 mixing_mode = 'local-TF' ,
                 mixing_beta = 0.5 ,
 /
ATOMIC_SPECIES
    C   12.01100  C.revpbe-n-kjpaw_psl.0.1.UPF 
   Cl   35.45200  Cl.revpbe-n-kjpaw_psl.0.3.0.UPF 
ATOMIC_POSITIONS (crystal)
C        0.005184470   0.007681882  -0.004793840
C        0.250444841   0.000889681  -0.013608998
C        0.502497412   0.007681882  -0.004793840
C        0.756340274   0.012680549   0.014375931
C        0.006264067   0.258073350  -0.003273362
C        0.088537872   0.174053563  -0.008336937
C        0.255768646   0.253726053  -0.013031794
C        0.332078989   0.164157977  -0.015589284
C        0.497957408   0.253726053  -0.013031794
C        0.585515690   0.174053563  -0.008336937
C        0.751809282   0.258073350  -0.003273362
C        0.838280436   0.176560874   0.002465215
C        0.002633356   0.505266713  -0.004207158
C        0.092429642   0.423576533  -0.003780851
C        0.266166593   0.504182341  -0.001967816
C        0.348646717   0.415952760  -0.008377882
C        0.567306042   0.415952760  -0.008377882
C        0.738015748   0.504182341  -0.001967816
C        0.831146890   0.423576533  -0.003780851
C        0.000213343   0.753141126  -0.006740909
C        0.085160549   0.670321100  -0.008595099
C        0.252927784   0.753141126  -0.006740909
C        0.339321739   0.671929717   0.005140872
C        0.497642821   0.768378659   0.024698623
Cl       0.594665904   0.689331811   0.088139286
C        0.770735839   0.768378659   0.024698623
C        0.832607977   0.671929717   0.005140872
C        0.083626008   0.919447717  -0.009230572
C        0.335821708   0.919447717  -0.009230572
C        0.588345619   0.929809055   0.013150147
C        0.841463435   0.929809055   0.013150147
K_POINTS automatic 
  16 16 1   0 0 0 

