 &CONTROL
                 calculation = 'scf' ,
                      outdir = './tmp_subs/' ,
                  pseudo_dir = '/home/deleted/pseudo_psl' ,
                      prefix = 'GI_ip_subs' ,
                   verbosity = 'high' ,
               etot_conv_thr = 1.0D-5 ,
               forc_conv_thr = 4.0D-4 ,
                       nstep = 1000 ,
                    dipfield = .true. ,
 /
 &SYSTEM
                       ibrav = 4,
                           A = 9.88 ,
                           C = 15 ,
                         nat = 31,
                        ntyp = 2,
                     ecutwfc = 40.424239707 ,
                     ecutrho = 404.24239707 ,
                 occupations = 'smearing' ,
                     degauss = 0.01 ,
				   input_dft = 'vdW-DF' ,
 /
 &ELECTRONS
            electron_maxstep = 50001,
                    conv_thr = 1.0D-6 ,
                 mixing_mode = 'local-TF' ,
                 mixing_beta = 0.5 ,
 /
ATOMIC_SPECIES
    C   12.01100  C.revpbe-n-kjpaw_psl.0.1.UPF 
    I  126.90400  I.revpbe-n-kjpaw_psl.0.2.UPF 
ATOMIC_POSITIONS crystal 
C        0.001682057   0.001546767   0.005164902
C        0.254417930   0.008835861   0.008875901
C        0.499864710   0.001546767   0.005164902
C        0.748092136  -0.003815728  -0.004324805
C       -0.002474818   0.248147441   0.012177703
C        0.083374977   0.168565675   0.005009158
C        0.250166927   0.255220211  -0.006556761
C        0.337025103   0.174050207  -0.004646954
C        0.505053284   0.255220211  -0.006556761
C        0.585190697   0.168565675   0.005009158
C        0.750622258   0.248147441   0.012177703
C        0.830683837   0.161367674   0.008993932
C        0.000504299   0.501008598   0.027048239
C        0.078245023   0.414889676   0.019285437
C        0.239752860   0.499760413   0.003024107
C        0.314753882   0.417975992  -0.016753518
C        0.603222109   0.417975992  -0.016753518
C        0.760007553   0.499760413   0.003024107
C        0.836644652   0.414889676   0.019285437
C        0.006827250   0.755182595   0.019265438
C        0.084516988   0.669033976   0.026866669
C        0.248355345   0.755182595   0.019265438
C        0.325046395   0.670200497   0.003431332
C        0.482146886   0.751867907  -0.015348186
I        0.542565442   0.585130886  -0.060760824
C        0.769721021   0.751867907  -0.015348186
C        0.845154101   0.670200497   0.003431332
C        0.087567941   0.921966971   0.012185344
C        0.334399031   0.921966971   0.012185344
C        0.580063440   0.914881169  -0.005939536
C        0.834817728   0.914881169  -0.005939536
K_POINTS automatic 
  16 16 1   0 0 0 

