 &CONTROL
                 calculation = 'bands' ,
                      outdir = './tmp/' ,
                  pseudo_dir = '/home/deleted/pseudo_psl' ,
                      prefix = 'GBr_ip' ,
                   verbosity = 'high' ,
               etot_conv_thr = 1.0D-5 ,
               forc_conv_thr = 4.0D-4 ,
                       nstep = 1000 ,
                    dipfield = .true. ,
 /
 &SYSTEM
                       ibrav = 4,
                           A = 9.88 ,
                           C = 15 ,
                         nat = 34,
                        ntyp = 4,
                     ecutwfc = 40.424239707 ,
                     ecutrho = 404.24239707 ,
                 occupations = 'tetrahedra' ,
                     degauss = 0.01 ,
				   input_dft = 'vdW-DF' ,
 /
 &ELECTRONS
            electron_maxstep = 50001,
                    conv_thr = 1.0D-6 ,
                 mixing_mode = 'local-TF' ,
                 mixing_beta = 0.5 ,
 /
ATOMIC_SPECIES
    C   12.01100  C.revpbe-n-kjpaw_psl.0.1.UPF 
   Br   79.90350  Br.revpbe-n-kjpaw_psl.0.2.UPF 
    O   15.99940  O.revpbe-n-kjpaw_psl.0.1.UPF 
    H   1.008000  H.revpbe-kjpaw_psl.0.1.UPF
ATOMIC_POSITIONS crystal 
C        0.005070029   0.022252852   0.008180266
C        0.254086538   0.020830628   0.013328715
C        0.504225342   0.022013464   0.018363314
C        0.755719888   0.024440978   0.012649295
C        0.004499579   0.272164120   0.016449403
C        0.087043681   0.188322980   0.015063062
C        0.252067336   0.268954268   0.027471141
C        0.337217410   0.187117303   0.013219591
C        0.503645410   0.268475379  -0.002450118
C        0.588284238   0.187929788   0.011497775
C        0.754610611   0.272122264   0.009872887
C        0.838180235   0.189338444   0.013138278
C        0.004458523   0.522075505   0.013093970
C        0.087973059   0.438299954   0.020444857
C        0.253573795   0.518910049   0.036647961
C        0.320016204   0.425019628   0.059486664
C        0.592488390   0.423875224  -0.034999763
C        0.752335876   0.519220714  -0.012539074
C        0.837251757   0.438431910   0.005883355
C        0.002329505   0.771064112   0.005441832
C        0.087824587   0.688390696   0.012666494
C        0.256186857   0.770887367   0.019411811
C        0.342434247   0.687825386   0.028611451
C        0.508573586   0.776662383   0.019737186
Br       0.503387145   0.480054371  -0.134707354
C        0.755386752   0.776869841   0.002414151
C        0.833304771   0.688210061  -0.005346072
C        0.086580161   0.937352750   0.010189522
C        0.337944820   0.937228295   0.015755467
C        0.589227149   0.940714114   0.017532756
C        0.838752408   0.940843168   0.007656643
O        0.593736044   0.700754702   0.007639410
O        0.445849914   0.486620438   0.115524728
H        0.484270583   0.413397834   0.121682132
K_POINTS crystal_b 
4
0.0000000000    0.0000000000    0.0000000000 17
0.0000000000    0.5000000000    0.0000000000 10
0.3333333333    0.3333333333    0.0000000000 20
0.0000000000    0.0000000000    0.0000000000 1

