 &CONTROL
                 calculation = 'scf' ,
                      outdir = './tmp/' ,
                  pseudo_dir = '/home/deleted/pseudo_psl' ,
                      prefix = 'GI_op' ,
                   verbosity = 'high' ,
               etot_conv_thr = 1.0D-5 ,
               forc_conv_thr = 4.0D-4 ,
                       nstep = 1000 ,
                    dipfield = .true. ,
 /
 &SYSTEM
                       ibrav = 4,
                           A = 9.88 ,
                           C = 15 ,
                         nat = 34,
                        ntyp = 4,
                     ecutwfc = 40.424239707 ,
                     ecutrho = 404.24239707 ,
                 occupations = 'smearing' ,
                     degauss = 0.01 ,
				   input_dft = 'vdW-DF' ,
    nspin = 2 ,
    starting_magnetization(1) = 0.5,
    starting_magnetization(2) = 0.5,
    starting_magnetization(3) = 0.5,
 /
 &ELECTRONS
            electron_maxstep = 50001,
                    conv_thr = 1.0D-6 ,
                 mixing_mode = 'local-TF' ,
                 mixing_beta = 0.5 ,
 /
ATOMIC_SPECIES
    C   12.01100  C.revpbe-n-kjpaw_psl.0.1.UPF 
    I  126.90400  I.revpbe-n-kjpaw_psl.0.2.UPF 
    O   15.99940  O.revpbe-n-kjpaw_psl.0.1.UPF 
    H   1.008000  H.revpbe-kjpaw_psl.0.1.UPF
ATOMIC_POSITIONS (crystal)
C       -0.000801882  -0.000017986  -0.007012343
C        0.245396085  -0.010309685  -0.006716610
C        0.501899029  -0.000004664  -0.007054402
C        0.757939565   0.014747145  -0.007533289
C        0.007958949   0.256458462  -0.007357190
C        0.085534069   0.167190031  -0.006890180
C        0.252545105   0.244089674  -0.006880900
C        0.326698530   0.152297816  -0.006494221
C        0.492674583   0.244106634  -0.006910547
C        0.582774853   0.167196340  -0.006934075
C        0.749625229   0.256461401  -0.007402958
C        0.839298546   0.177472789  -0.007283444
C        0.001437511   0.501744790  -0.008532004
C        0.096425102   0.421344145  -0.008221079
C        0.274004168   0.499345087  -0.008762933
C        0.352454027   0.406371074  -0.007831823
C        0.555045321   0.406373309  -0.007868219
C        0.726489821   0.499346228  -0.008862277
C        0.826055663   0.421342813  -0.008285843
C       -0.011821169   0.745718043  -0.008428094
C        0.083237657   0.665350620  -0.008630618
C        0.258665294   0.745738340  -0.008387760
C        0.357932386   0.667792725  -0.009008364
C        0.529434780   0.760864855  -0.007886766
I        0.593887601   0.676416601   0.207259442
C        0.732485816   0.760827603  -0.007750076
C        0.811012899   0.667766552  -0.009076491
C        0.076692115   0.910676123  -0.007225999
C        0.335093156   0.910676600  -0.007235664
C        0.592099418   0.923232954  -0.007593192
C        0.832244179   0.923242663  -0.007523291
O        0.504845689   0.639534668   0.467118128
O        0.563153253   0.723353014   0.533287922
H        0.792423369   0.563450677   0.507233257
K_POINTS automatic 
  16 16 1   0 0 0 

