 &CONTROL
                 calculation = 'bands' ,
                      outdir = './tmp/' ,
                  pseudo_dir = '/home/deleted/pseudo_psl' ,
                      prefix = 'GBr_ip' ,
                   verbosity = 'high' ,
               etot_conv_thr = 1.0D-5 ,
               forc_conv_thr = 4.0D-4 ,
                       nstep = 1000 ,
                    dipfield = .true. ,
 /
 &SYSTEM
                       ibrav = 4,
                           A = 9.88 ,
                           C = 15 ,
                         nat = 34,
                        ntyp = 4,
                     ecutwfc = 40.424239707 ,
                     ecutrho = 404.24239707 ,
                 occupations = 'tetrahedra' ,
                     degauss = 0.01 ,
				   input_dft = 'vdW-DF' ,
    nspin = 2 ,
    starting_magnetization(1) = 0.5,
    starting_magnetization(2) = 0.5,
    starting_magnetization(3) = -0.9,
 /
 &ELECTRONS
            electron_maxstep = 50001,
                    conv_thr = 1.0D-6 ,
                 mixing_mode = 'local-TF' ,
                 mixing_beta = 0.5 ,
 /
ATOMIC_SPECIES
    C   12.01100  C.revpbe-n-kjpaw_psl.0.1.UPF 
   Br   79.90350  Br.revpbe-n-kjpaw_psl.0.2.UPF 
    O   15.99940  O.revpbe-n-kjpaw_psl.0.1.UPF 
    H   1.008000  H.revpbe-kjpaw_psl.0.1.UPF
ATOMIC_POSITIONS (crystal)
C       -0.004826410   0.006173787   0.002403749
C        0.247765694   0.013003536   0.005211201
C        0.493517876   0.006133721   0.001932913
C        0.741648763   0.000736939  -0.003906957
C       -0.008597556   0.253136643   0.007108652
C        0.077138252   0.173323620   0.002120788
C        0.244890328   0.260564362  -0.005321805
C        0.330614756   0.178751537  -0.004031754
C        0.498158828   0.260518602  -0.005355986
C        0.578736742   0.173286128   0.001903779
C        0.744330571   0.253097825   0.007069184
C        0.824566320   0.166521615   0.005081687
C       -0.005781452   0.505723257   0.017281356
C        0.071999449   0.419757790   0.011965503
C        0.234988260   0.504817122   0.001316354
C        0.311873010   0.423876106  -0.012266109
C        0.594543238   0.423935379  -0.011999164
C        0.752408727   0.504783247   0.001718258
C        0.830431211   0.419714464   0.012173720
C        0.000390177   0.759741601   0.012472162
C        0.078207254   0.673756601   0.017390372
C        0.241953612   0.759728109   0.012050898
C        0.319886716   0.674688603   0.001330392
C        0.477732923   0.755560371  -0.012180286
Br       0.536197867   0.589841409  -0.036597552
C        0.760282942   0.755505747  -0.011551591
C        0.837364202   0.674696399   0.001923053
C        0.080946415   0.926383840   0.007487402
C        0.327973986   0.926360476   0.007113431
C        0.574079167   0.918890325  -0.005300866
C        0.827369814   0.918926277  -0.004865443
O        0.450926790   0.446622995   0.190634153
O        0.530612852   0.599802155   0.155344356
H        0.533635678   0.438803450   0.222527080
K_POINTS automatic 
  20 20 1   0 0 0 

