 &CONTROL
                 calculation = 'scf' ,
                      outdir = './tmp/' ,
                  pseudo_dir = '/home/deleted/pseudo_psl' ,
                      prefix = 'GF_ip' ,
                   verbosity = 'high' ,
               etot_conv_thr = 1.0D-5 ,
               forc_conv_thr = 4.0D-4 ,
                       nstep = 1000 ,
                    dipfield = .true. ,
 /
 &SYSTEM
                       ibrav = 4,
                           A = 9.88 ,
                           C = 15 ,
                         nat = 34,
                        ntyp = 4,
                     ecutwfc = 40.424239707 ,
                     ecutrho = 404.24239707 ,
                 occupations = 'smearing' ,
                     degauss = 0.01 ,
				   input_dft = 'vdW-DF' ,
 /
 &ELECTRONS
            electron_maxstep = 50001,
                    conv_thr = 1.0D-6 ,
                 mixing_mode = 'local-TF' ,
                 mixing_beta = 0.5 ,
 /
ATOMIC_SPECIES
    C   12.01100  C.revpbe-n-kjpaw_psl.0.1.UPF 
    F   18.99800  F.revpbe-n-kjpaw_psl.0.1.UPF 
    O   15.99940  O.revpbe-n-kjpaw_psl.0.1.UPF 
    H   1.008000  H.revpbe-kjpaw_psl.0.1.UPF
ATOMIC_POSITIONS crystal 
C       -0.004163292   0.011839792   0.004946058
C        0.242814088   0.006648144   0.012227602
C        0.494799613   0.012877585   0.016688955
C        0.744108578   0.013905719   0.005520626
C       -0.003403549   0.262928455   0.004642541
C        0.078844607   0.178534185   0.008333553
C        0.247059322   0.260346586   0.010037086
C        0.324553434   0.170888917   0.010959191
C        0.490039114   0.259739924   0.008723706
C        0.576607960   0.179028054   0.009283764
C        0.742727544   0.263251611   0.006576401
C        0.828183022   0.180569677   0.004440387
C       -0.006668800   0.510705416   0.005628167
C        0.082468344   0.428764149   0.007127820
C        0.257452868   0.511948044   0.014732164
C        0.339342642   0.422309823   0.010879549
C        0.560422919   0.422421323   0.004212390
C        0.729448083   0.510566116  -0.000933632
C        0.821892820   0.429007760   0.003549815
C       -0.007661792   0.759872689   0.003534571
C        0.076465194   0.676516244   0.008327865
C        0.243648739   0.757655148   0.016969594
C        0.328295751   0.676621421   0.025746199
C        0.492950648   0.769690796   0.055148954
F        0.616195663   0.702551527  -0.068288559
C        0.759518317   0.772805215  -0.027526984
C        0.824972668   0.679421013  -0.007945202
C        0.075733212   0.925090139   0.006446170
C        0.327077903   0.925566718   0.017807748
C        0.580913005   0.933904063   0.021821311
C        0.830121701   0.931506480  -0.006065856
O        0.830343277   0.639279155   0.167626326
O        0.550409482   0.718153437   0.109316731
H        0.747175201   0.659210473   0.186832377
K_POINTS automatic 
  16 16 1   0 0 0 

