 &CONTROL
                 calculation = 'relax' ,
                      outdir = './tmp/' ,
                  pseudo_dir = '/home/deleted/pseudo_psl' ,
                      prefix = 'GF_ip' ,
                   verbosity = 'high' ,
               etot_conv_thr = 1.0D-5 ,
               forc_conv_thr = 4.0D-4 ,
                       nstep = 1000 ,
                    dipfield = .true. ,
 /
 &SYSTEM
                       ibrav = 4,
                           A = 9.88 ,
                           C = 15 ,
                         nat = 34,
                        ntyp = 4,
                     ecutwfc = 40.424239707 ,
                     ecutrho = 404.24239707 ,
                 occupations = 'smearing' ,
                     degauss = 0.01 ,
				   input_dft = 'vdW-DF' ,
 /
 &ELECTRONS
            electron_maxstep = 50001,
                    conv_thr = 1.0D-6 ,
                 mixing_mode = 'local-TF' ,
                 mixing_beta = 0.5 ,
 /
 &IONS
                ion_dynamics = 'bfgs' ,
 /
ATOMIC_SPECIES
    C   12.01100  C.revpbe-n-kjpaw_psl.0.1.UPF 
    F   18.99800  F.revpbe-n-kjpaw_psl.0.1.UPF 
    O   15.99940  O.revpbe-n-kjpaw_psl.0.1.UPF 
    H   1.008000  H.revpbe-kjpaw_psl.0.1.UPF
ATOMIC_POSITIONS crystal 
C       -0.002881735   0.012038711   0.005571825
C        0.244094744   0.006503022   0.012645631
C        0.496328603   0.013020572   0.016734987
C        0.745414802   0.013799375   0.006303219
C       -0.001906833   0.263172344   0.004878091
C        0.080408893   0.179058936   0.009049125
C        0.248414697   0.260220664   0.009851705
C        0.325952510   0.170657435   0.010678119
C        0.491563812   0.259838647   0.007787536
C        0.578327004   0.179270173   0.009012383
C        0.744369079   0.263516704   0.005831160
C        0.829512679   0.180407432   0.004756869
C       -0.005242249   0.511251927   0.004665498
C        0.083661399   0.429127464   0.006563503
C        0.258301573   0.511747416   0.013741767
C        0.339924758   0.422169379   0.009340866
C        0.561890157   0.422416269   0.002160826
C        0.730882472   0.510438489  -0.004804535
C        0.823347094   0.429319356   0.001395994
C       -0.007107714   0.759739064   0.002829282
C        0.077861303   0.676927090   0.007991337
C        0.245218108   0.757679626   0.016988560
C        0.329793194   0.676586960   0.025593105
C        0.494746098   0.768104158   0.054112376
F        0.618127705   0.706434622  -0.070194790
C        0.760790138   0.773431976  -0.028909140
C        0.826185508   0.679329500  -0.011781006
C        0.076737987   0.925109141   0.006988521
C        0.328646876   0.925652731   0.017822439
C        0.581899759   0.933383739   0.022142157
C        0.831631269   0.931692319  -0.005383794
O        0.791333418   0.619599886   0.196905711
O        0.554386502   0.712991108   0.104502548
H        0.740074676   0.679489567   0.181555514
K_POINTS automatic 
  4 4 1   0 0 0 

