 &CONTROL
                 calculation = 'nscf' ,
                      outdir = './tmp/' ,
                  pseudo_dir = '/home/deleted/pseudo_psl' ,
                      prefix = 'GF_op' ,
                   verbosity = 'high' ,
               etot_conv_thr = 1.0D-5 ,
               forc_conv_thr = 4.0D-4 ,
                       nstep = 1000 ,
                    dipfield = .true. ,
 /
 &SYSTEM
                       ibrav = 4,
                           A = 9.88 ,
                           C = 15 ,
                         nat = 34,
                        ntyp = 4,
                     ecutwfc = 40.424239707 ,
                     ecutrho = 404.24239707 ,
                 occupations = 'tetrahedra' ,
                     degauss = 0.01 ,
				   input_dft = 'vdW-DF' ,
 /
 &ELECTRONS
            electron_maxstep = 50001,
                    conv_thr = 1.0D-6 ,
                 mixing_mode = 'local-TF' ,
                 mixing_beta = 0.5 ,
 /
ATOMIC_SPECIES
    C   12.01100  C.revpbe-n-kjpaw_psl.0.1.UPF 
    F   18.99800  F.revpbe-n-kjpaw_psl.0.1.UPF 
    O   15.99940  O.revpbe-n-kjpaw_psl.0.1.UPF 
	H   1.00800   H.revpbe-kjpaw_psl.0.1.UPF
ATOMIC_POSITIONS crystal 
C       -0.006166105   0.007838074  -0.002237989
C        0.240748859   0.002562208   0.005222721
C        0.492752972   0.008822339   0.009124905
C        0.742101638   0.009870497  -0.002285198
C       -0.005425193   0.258905356  -0.002492683
C        0.076876887   0.174590595   0.001318698
C        0.245083735   0.256348992   0.003137032
C        0.322550247   0.166835235   0.003980895
C        0.488025304   0.255703777   0.001492103
C        0.574579022   0.174996333   0.001764309
C        0.740684132   0.259199059  -0.000953617
C        0.826158421   0.176517744  -0.003087854
C       -0.008809656   0.506690653  -0.001501950
C        0.080294159   0.424730938   0.000110591
C        0.255235068   0.507861681   0.007598525
C        0.337211381   0.418310747   0.003816008
C        0.558459039   0.418426041  -0.003102311
C        0.727391970   0.506522367  -0.008577779
C        0.819782578   0.424978214  -0.003841121
C       -0.009858787   0.755800090  -0.003641701
C        0.074299754   0.672458476   0.001251816
C        0.241508954   0.753559187   0.009853168
C        0.326177602   0.672560997   0.018452820
C        0.491080627   0.765714673   0.047494138
F        0.614438098   0.698843068  -0.076274862
C        0.757627696   0.768829315  -0.035323956
C        0.822903079   0.675357810  -0.015679954
C        0.073642642   0.921036311  -0.000552183
C        0.325029527   0.921491432   0.010580176
C        0.578871968   0.929846281   0.014004236
C        0.828230660   0.927545746  -0.013721620
O        0.834755000   0.639152448   0.162207254
O        0.548985485   0.714433699   0.101520696
H        0.752571414   0.659493208   0.182807853
K_POINTS automatic 
  20 20 1   0 0 0 