 &CONTROL
                 calculation = 'bands' ,
                      outdir = './tmp/' ,
                  pseudo_dir = '/home/deleted/pseudo_psl' ,
                      prefix = 'GBr_op' ,
                   verbosity = 'high' ,
               etot_conv_thr = 1.0D-5 ,
               forc_conv_thr = 4.0D-4 ,
                       nstep = 1000 ,
                    dipfield = .true. ,
 /
 &SYSTEM
                       ibrav = 4,
                           A = 9.88 ,
                           C = 15 ,
                         nat = 34,
                        ntyp = 4,
                     ecutwfc = 40.424239707 ,
                     ecutrho = 404.24239707 ,
                 occupations = 'tetrahedra' ,
                     degauss = 0.01 ,
				   input_dft = 'vdW-DF' ,
    nspin = 2 ,
    starting_magnetization(1) = 0.5,
    starting_magnetization(2) = 0.5,
    starting_magnetization(3) = 0.5,
 /
 &ELECTRONS
            electron_maxstep = 50001,
                    conv_thr = 1.0D-6 ,
                 mixing_mode = 'local-TF' ,
                 mixing_beta = 0.5 ,
 /
ATOMIC_SPECIES
    C   12.01100  C.revpbe-n-kjpaw_psl.0.1.UPF 
   Br   79.90350  Br.revpbe-n-kjpaw_psl.0.2.UPF 
    O   15.99940  O.revpbe-n-kjpaw_psl.0.1.UPF 
    H   1.008000  H.revpbe-kjpaw_psl.0.1.UPF
ATOMIC_POSITIONS (crystal)
C        0.010790717   0.011428846  -0.000811873
C        0.256615705   0.001271237  -0.003403095
C        0.513139407   0.011758159  -0.006236579
C        0.769780797   0.024575007  -0.003491902
C        0.019392331   0.267231743  -0.006541350
C        0.097486890   0.178623528  -0.004806522
C        0.264559869   0.255765584  -0.005702444
C        0.338596638   0.164394789  -0.004948966
C        0.504873244   0.256602481  -0.006616929
C        0.594613648   0.179076029  -0.007004203
C        0.761771956   0.267142325  -0.008316239
C        0.851300964   0.188290637  -0.006753460
C        0.013380995   0.512575323  -0.007564773
C        0.108201903   0.432409621  -0.007540625
C        0.285087176   0.510557229  -0.007030444
C        0.365087839   0.418559059  -0.006958171
C        0.566992841   0.418735874  -0.007048832
C        0.740327230   0.511485498  -0.007085951
C        0.838993789   0.432058708  -0.008487068
C        0.000585848   0.756225079  -0.003555677
C        0.094961828   0.676604330  -0.005790634
C        0.269135548   0.757368217  -0.005043053
C        0.367056461   0.679209541  -0.005810354
C        0.535907089   0.772433183  -0.006353163
Br       0.687336263   0.729098205   0.161160220
C        0.744046400   0.769406655   0.015256071
C        0.827126274   0.677453839  -0.002410713
C        0.089229638   0.922371128  -0.001236347
C        0.346399099   0.922231379  -0.004770012
C        0.602689534   0.934242837  -0.005929337
C        0.844974390   0.936035179   0.003179468
O        0.137395205   0.306588858   0.209999541
O        0.185875898   0.448731928   0.209679651
H        0.230059280   0.377998340   0.406586903
K_POINTS automatic 
  20 20 1   0 0 0 

