&PROJWFC
  outdir = './tmp',
  prefix = 'OH',
  filpdos = 'OH-pdos',
  ngauss = 1,
  degauss = 0.01,
  DeltaE = 0.01,
  lsym = .true.
/
