 &CONTROL
                 calculation = 'bands' ,
                      outdir = './tmp/' ,
                  pseudo_dir = '/home/deleted/pseudo_psl' ,
                      prefix = 'GBr_ip' ,
                   verbosity = 'high' ,
               etot_conv_thr = 1.0D-5 ,
               forc_conv_thr = 4.0D-4 ,
                       nstep = 1000 ,
                    dipfield = .true. ,
 /
 &SYSTEM
                       ibrav = 4,
                           A = 9.88 ,
                           C = 15 ,
                         nat = 34,
                        ntyp = 4,
                     ecutwfc = 40.424239707 ,
                     ecutrho = 404.24239707 ,
                 occupations = 'tetrahedra' ,
                     degauss = 0.01 ,
				   input_dft = 'vdW-DF' ,
 /
 &ELECTRONS
            electron_maxstep = 50001,
                    conv_thr = 1.0D-6 ,
                 mixing_mode = 'local-TF' ,
                 mixing_beta = 0.5 ,
 /
ATOMIC_SPECIES
    C   12.01100  C.revpbe-n-kjpaw_psl.0.1.UPF 
   Br   79.90350  Br.revpbe-n-kjpaw_psl.0.2.UPF 
    O   15.99940  O.revpbe-n-kjpaw_psl.0.1.UPF 
    H   1.008000  H.revpbe-kjpaw_psl.0.1.UPF
ATOMIC_POSITIONS crystal 
C        0.006566074   0.009030113   0.002432748
C        0.259142262   0.015803349   0.004444819
C        0.504962396   0.009002897   0.002204770
C        0.752914063   0.003302273  -0.002467462
C        0.002668883   0.255849384   0.006179010
C        0.088467249   0.176020450   0.002301047
C        0.256269258   0.263473235  -0.002809854
C        0.342053105   0.181730609  -0.002324849
C        0.509606993   0.263420704  -0.002846555
C        0.590051990   0.175983796   0.002212036
C        0.755716125   0.255846038   0.006196509
C        0.835913195   0.169256692   0.004279235
C        0.005532952   0.508500528   0.014307186
C        0.083031469   0.422390787   0.010517348
C        0.246431068   0.507589157   0.004024742
C        0.324468005   0.427114405  -0.005681554
C        0.605032493   0.427170040  -0.005662291
C        0.763613261   0.507601702   0.004198253
C        0.841886013   0.422389530   0.010647776
C        0.011976144   0.762697230   0.010763207
C        0.089568263   0.676624440   0.014370629
C        0.253202039   0.762689097   0.010487122
C        0.331298147   0.677476120   0.003797331
C        0.489807719   0.757873572  -0.006152461
Br       0.547504861   0.592663656  -0.027413791
C        0.770485511   0.757856440  -0.006234295
C        0.848642074   0.677534381   0.004027750
C        0.092394270   0.929254278   0.006423366
C        0.339367150   0.929246725   0.006219335
C        0.585346688   0.921516062  -0.003048467
C        0.838715777   0.921568467  -0.002959979
O        0.552045366   0.610568049   0.138664558
O        0.470568037   0.458242881   0.178886740
H        0.556415407   0.442434753   0.198412968
K_POINTS crystal_b 
4
0.0000000000    0.0000000000    0.0000000000 17
0.0000000000    0.5000000000    0.0000000000 10
0.3333333333    0.3333333333    0.0000000000 20
0.0000000000    0.0000000000    0.0000000000 1

