 &CONTROL
                 calculation = 'scf' ,
                      outdir = './tmp/' ,
                  pseudo_dir = '/home/deleted/pseudo_psl' ,
                      prefix = 'GI_op' ,
                   verbosity = 'high' ,
               etot_conv_thr = 1.0D-5 ,
               forc_conv_thr = 4.0D-4 ,
                       nstep = 1000 ,
                    dipfield = .true. ,
 /
 &SYSTEM
                       ibrav = 4,
                           A = 9.88 ,
                           C = 15 ,
                         nat = 33,
                        ntyp = 3,
                     ecutwfc = 40.424239707 ,
                     ecutrho = 404.24239707 ,
                 occupations = 'smearing' ,
                     degauss = 0.01 ,
				   input_dft = 'vdW-DF' ,
 /
 &ELECTRONS
            electron_maxstep = 50001,
                    conv_thr = 1.0D-6 ,
                 mixing_mode = 'local-TF' ,
                 mixing_beta = 0.5 ,
 /
ATOMIC_SPECIES
    C   12.01100  C.revpbe-n-kjpaw_psl.0.1.UPF 
    I  126.90400  I.revpbe-n-kjpaw_psl.0.2.UPF 
    O   15.99940  O.revpbe-n-kjpaw_psl.0.1.UPF 
ATOMIC_POSITIONS crystal 
C       -0.001956625  -0.001134327  -0.001168402
C        0.244266385  -0.011467227  -0.000943565
C        0.500822303  -0.001134326  -0.001168402
C        0.757069708   0.014139414  -0.001544378
C        0.007097756   0.255503654  -0.001330055
C        0.084426961   0.166107340  -0.001115531
C        0.251398705   0.242842483  -0.001165806
C        0.325388643   0.150777292  -0.000920252
C        0.491443778   0.242842478  -0.001165806
C        0.581680380   0.166107337  -0.001115531
C        0.748405901   0.255503654  -0.001330055
C        0.838204387   0.176408772  -0.001322085
C        0.000439391   0.500878778  -0.001848978
C        0.095576779   0.420259209  -0.001718664
C        0.272961002   0.498045109  -0.002015414
C        0.351252122   0.404872384  -0.001686893
C        0.553620250   0.404872355  -0.001686893
C        0.725084097   0.498045092  -0.002015414
C        0.824682429   0.420259205  -0.001718664
C       -0.013199294   0.744573182  -0.001781146
C        0.081978247   0.663956493  -0.001881749
C        0.257772476   0.744573185  -0.001781146
C        0.357134500   0.666737514  -0.002128582
C        0.528755162   0.760072706  -0.001641406
I        0.597159607   0.694319216   0.220414021
C        0.731317536   0.760072695  -0.001641406
C        0.809603007   0.666737502  -0.002128582
C        0.075311532   0.909402894  -0.001201761
C        0.334091361   0.909402896  -0.001201761
C        0.591133904   0.922249984  -0.001530565
C        0.831116080   0.922249983  -0.001530565
O        0.612893592   0.725787190   0.432213593
O        0.560525565   0.621051156   0.372761560
K_POINTS automatic 
  16 16 1   0 0 0 

