 &CONTROL
                 calculation = 'relax' ,
                      outdir = './tmp/' ,
                  pseudo_dir = '/home/deleted/pseudo_psl' ,
                      prefix = 'GI_op' ,
                   verbosity = 'high' ,
               etot_conv_thr = 1.0D-5 ,
               forc_conv_thr = 4.0D-4 ,
                       nstep = 1000 ,
                    dipfield = .true. ,
 /
 &SYSTEM
                       ibrav = 4,
                           A = 9.88 ,
                           C = 15 ,
                         nat = 34,
                        ntyp = 4,
                     ecutwfc = 40.424239707 ,
                     ecutrho = 404.24239707 ,
                 occupations = 'smearing' ,
                     degauss = 0.01 ,
				   input_dft = 'vdW-DF' ,
 /
 &ELECTRONS
            electron_maxstep = 50001,
                    conv_thr = 1.0D-6 ,
                 mixing_mode = 'local-TF' ,
                 mixing_beta = 0.5 ,
 /
 &IONS
                ion_dynamics = 'bfgs' ,
 /
ATOMIC_SPECIES
    C   12.01100  C.revpbe-n-kjpaw_psl.0.1.UPF 
    I  126.90400  I.revpbe-n-kjpaw_psl.0.2.UPF 
    O   15.99940  O.revpbe-n-kjpaw_psl.0.1.UPF 
    H   1.008000  H.revpbe-kjpaw_psl.0.1.UPF
ATOMIC_POSITIONS crystal 
C       -0.002520257   0.015776675  -0.010091632
C        0.243106831   0.004953796  -0.008083221
C        0.496979504   0.016905799  -0.000170035
C        0.757806640   0.030930334  -0.002163197
C        0.004429498   0.270738671  -0.012475052
C        0.082874901   0.182633153  -0.011945403
C        0.250559193   0.260498588  -0.012312457
C        0.324143897   0.167540618  -0.010288300
C        0.488824236   0.259179713  -0.009991598
C        0.578484681   0.182336120  -0.006193915
C        0.746017252   0.271433304  -0.007649446
C        0.836228473   0.191644535  -0.007934493
C       -0.002054473   0.516039482  -0.011461241
C        0.091021659   0.435266516  -0.013248658
C        0.268512174   0.514307819  -0.012122059
C        0.350208961   0.421436350  -0.012293849
C        0.551127274   0.422337615  -0.011130986
C        0.722070201   0.513871738  -0.010740533
C        0.821427289   0.434771623  -0.010595572
C       -0.013608509   0.761097710  -0.008812801
C        0.080120348   0.679442306  -0.009097533
C        0.253977945   0.758396753  -0.005888295
C        0.345751820   0.678202402  -0.005968774
C        0.525228750   0.771030822   0.013742184
I        0.618803715   0.495448227   0.220990388
C        0.733319395   0.775295192  -0.007084425
C        0.809677091   0.683435059  -0.009271207
C        0.074159477   0.925433968  -0.009229610
C        0.332587211   0.926617867  -0.003690273
C        0.590676524   0.941542397   0.013049597
C        0.830384499   0.938747756  -0.007087259
O        0.605937724   0.496731891   0.349505499
O        0.552899510   0.841738350   0.098896412
H        0.482295634   0.647399864   0.214695814
K_POINTS automatic 
  4 4 1   0 0 0 

