 &CONTROL
                 calculation = 'scf' ,
                      outdir = './tmp_subs/' ,
                  pseudo_dir = '/home/deleted/pseudo_psl' ,
                      prefix = 'GI_ip-subs' ,
                   verbosity = 'high' ,
               etot_conv_thr = 1.0D-5 ,
               forc_conv_thr = 4.0D-4 ,
                       nstep = 1000 ,
                    dipfield = .true. ,
 /
 &SYSTEM
                       ibrav = 4,
                           A = 9.88 ,
                           C = 15 ,
                         nat = 31,
                        ntyp = 2,
                     ecutwfc = 40.424239707 ,
                     ecutrho = 404.24239707 ,
                 occupations = 'smearing' ,
                     degauss = 0.01 ,
				   input_dft = 'vdW-DF' ,
    nspin = 2 ,
    starting_magnetization(1) = 0.5,
    starting_magnetization(2) = 0.5,
 /
 &ELECTRONS
            electron_maxstep = 50001,
                    conv_thr = 1.0D-6 ,
                 mixing_mode = 'local-TF' ,
                 mixing_beta = 0.5 ,
 /
ATOMIC_SPECIES
    C   12.01100  C.revpbe-n-kjpaw_psl.0.1.UPF 
    I  126.90400  I.revpbe-n-kjpaw_psl.0.2.UPF 
ATOMIC_POSITIONS (crystal)
C        0.000995809   0.000105779   0.003365320
C        0.253571449   0.007142898   0.006948269
C        0.499109970   0.000105779   0.003365320
C        0.746994328  -0.006011343  -0.005763082
C       -0.003629619   0.246150097   0.009585249
C        0.082289575   0.166551870   0.003412419
C        0.248645690   0.253175962  -0.007160605
C        0.336321499   0.172642998  -0.005487239
C        0.504530273   0.253175962  -0.007160605
C        0.584262295   0.166551870   0.003412419
C        0.749779715   0.246150097   0.009585249
C        0.829753990   0.159507981   0.006704788
C       -0.000398713   0.499202575   0.022281294
C        0.077036392   0.413048124   0.015307411
C        0.238277142   0.498139686   0.000234802
C        0.314610041   0.416005367  -0.016326076
C        0.601395325   0.416005367  -0.016326076
C        0.759862544   0.498139686   0.000234802
C        0.836011732   0.413048124   0.015307411
C        0.006279825   0.753631775   0.015334007
C        0.083747209   0.667494419   0.022298752
C        0.247351949   0.753631775   0.015334007
C        0.323457176   0.668495396   0.000231637
C        0.481886520   0.750591551  -0.016410782
I        0.541630409   0.583260818  -0.057001444
C        0.768705031   0.750591551  -0.016410782
C        0.845038219   0.668495396   0.000231637
C        0.086928944   0.920520685   0.009678198
C        0.333591741   0.920520685   0.009678198
C        0.578787149   0.913453234  -0.007345227
C        0.834666084   0.913453234  -0.007345227
K_POINTS automatic 
  16 16 1   0 0 0 

