 &CONTROL
                 calculation = 'scf' ,
                      outdir = './tmp_subs/' ,
                  pseudo_dir = '/home/deleted/pseudo_psl' ,
                      prefix = 'GBr_ip_subs' ,
                   verbosity = 'high' ,
               etot_conv_thr = 1.0D-5 ,
               forc_conv_thr = 4.0D-4 ,
                       nstep = 1000 ,
                    dipfield = .true. ,
 /
 &SYSTEM
                       ibrav = 4,
                           A = 9.88 ,
                           C = 15 ,
                         nat = 31,
                        ntyp = 2,
                     ecutwfc = 40.424239707 ,
                     ecutrho = 404.24239707 ,
                 occupations = 'smearing' ,
                     degauss = 0.01 ,
				   input_dft = 'vdW-DF' ,
 /
 &ELECTRONS
            electron_maxstep = 50001,
                    conv_thr = 1.0D-6 ,
                 mixing_mode = 'local-TF' ,
                 mixing_beta = 0.5 ,
 /
ATOMIC_SPECIES
    C   12.01100  C.revpbe-n-kjpaw_psl.0.1.UPF 
   Br   79.90350  Br.revpbe-n-kjpaw_psl.0.2.UPF 
ATOMIC_POSITIONS crystal 
C       -0.000651698  -0.002937801   0.002517615
C        0.251943947   0.003887893   0.005711673
C        0.497713898  -0.002937801   0.002517615
C        0.745856546  -0.008286909  -0.003772022
C       -0.004457171   0.244078331   0.007754457
C        0.081259580   0.164263535   0.002487790
C        0.249068862   0.251375119  -0.005177626
C        0.334816578   0.169633157  -0.003811810
C        0.502306258   0.251375119  -0.005177626
C        0.583003954   0.164263535   0.002487790
C        0.748535502   0.244078331   0.007754457
C        0.828743090   0.157486181   0.005707129
C       -0.001650584   0.496698834   0.018287277
C        0.076106085   0.410742767   0.012837896
C        0.239019898   0.495757394   0.001660194
C        0.315622069   0.414698424  -0.012502088
C        0.599076353   0.414698424  -0.012502088
C        0.756737496   0.495757394   0.001660194
C        0.834636682   0.410742767   0.012837896
C        0.004581313   0.750663875   0.012817666
C        0.082368791   0.664737582   0.018263407
C        0.246082562   0.750663875   0.012817666
C        0.323958275   0.665616025   0.001639589
C        0.481618508   0.746596444  -0.012523923
Br       0.540291028   0.580582056  -0.038369360
C        0.764977937   0.746596444  -0.012523923
C        0.841657749   0.665616025   0.001639589
C        0.085131215   0.917319259   0.007770392
C        0.332188043   0.917319259   0.007770392
C        0.578385221   0.909924499  -0.005135210
C        0.831539278   0.909924499  -0.005135210
K_POINTS automatic 
  16 16 1   0 0 0 

