 &CONTROL
                 calculation = 'nscf' ,
                      outdir = './tmp/' ,
                  pseudo_dir = '/home/deleted/pseudo_psl' ,
                      prefix = 'GCl_op' ,
                   verbosity = 'high' ,
               etot_conv_thr = 1.0D-5 ,
               forc_conv_thr = 4.0D-4 ,
                       nstep = 1000 ,
                    dipfield = .true. ,
 /
 &SYSTEM
                       ibrav = 4,
                           A = 9.88 ,
                           C = 15 ,
                         nat = 34,
                        ntyp = 4,
                     ecutwfc = 40.424239707 ,
                     ecutrho = 404.24239707 ,
                 occupations = 'tetrahedra' ,
                     degauss = 0.01 ,
				   input_dft = 'vdW-DF' ,
    nspin = 2 ,
    starting_magnetization(1) = 0.5,
    starting_magnetization(2) = 0.5,
    starting_magnetization(3) = 0.5,
 /
 &ELECTRONS
            electron_maxstep = 50001,
                    conv_thr = 1.0D-6 ,
                 mixing_mode = 'local-TF' ,
                 mixing_beta = 0.5 ,
 /
ATOMIC_SPECIES
    C   12.01100  C.revpbe-n-kjpaw_psl.0.1.UPF 
   Cl   35.45200  Cl.revpbe-n-kjpaw_psl.0.3.0.UPF 
    O   15.99940  O.revpbe-n-kjpaw_psl.0.1.UPF 
    H   1.008000  H.revpbe-kjpaw_psl.0.1.UPF
ATOMIC_POSITIONS (crystal)
C       -0.019377353  -0.003086883  -0.006852874
C        0.224769728  -0.012267811  -0.005935887
C        0.477949048  -0.003216394  -0.005592804
C        0.733074008   0.004386376  -0.006286498
C       -0.016272811   0.249065448  -0.005498492
C        0.064673953   0.163287271  -0.006064817
C        0.231330298   0.241237277  -0.005669069
C        0.306023379   0.150324282  -0.005724493
C        0.471584665   0.241168295  -0.005346060
C        0.560273469   0.163196463  -0.005321243
C        0.727041047   0.248956048  -0.005095872
C        0.815120580   0.168455938  -0.005555634
C       -0.021298826   0.495518138  -0.005115284
C        0.071302654   0.414176689  -0.005060104
C        0.247394797   0.494073368  -0.005124462
C        0.329682932   0.403329654  -0.005262681
C        0.535302731   0.403308520  -0.005132025
C        0.708324000   0.493818519  -0.005201756
C        0.804664099   0.414067262  -0.005027315
C       -0.027183440   0.741745091  -0.006044328
C        0.061045023   0.660035563  -0.005529129
C        0.230920259   0.741622064  -0.005540516
C        0.321479746   0.662269075  -0.005308841
C        0.486841010   0.756210890  -0.005600772
Cl       0.833173716   0.878561293   0.236179308
C        0.731105654   0.756356196  -0.006437912
C        0.802596072   0.662243537  -0.005652507
C        0.057829319   0.907554205  -0.006437255
C        0.311420114   0.907386845  -0.005700250
C        0.566153507   0.919346688  -0.005839609
C        0.815026967   0.919460478  -0.007098340
O        0.884682586   0.735437748   0.224803269
O        0.570879394   0.679811966  -0.005808047
H        0.861305785   0.705886978   0.161878998
K_POINTS automatic 
  20 20 1   0 0 0 

