 &CONTROL
                 calculation = 'relax' ,
                      outdir = './tmp/' ,
                  pseudo_dir = '/home/deleted/pseudo_psl' ,
                      prefix = 'GBr_op' ,
                   verbosity = 'high' ,
               etot_conv_thr = 1.0D-5 ,
               forc_conv_thr = 4.0D-4 ,
                       nstep = 1000 ,
                    dipfield = .true. ,
 /
 &SYSTEM
                       ibrav = 4,
                           A = 9.88 ,
                           C = 15 ,
                         nat = 34,
                        ntyp = 4,
                     ecutwfc = 40.424239707 ,
                     ecutrho = 404.24239707 ,
                 occupations = 'smearing' ,
                     degauss = 0.01 ,
				   input_dft = 'vdW-DF' ,
 /
 &ELECTRONS
            electron_maxstep = 50001,
                    conv_thr = 1.0D-6 ,
                 mixing_mode = 'local-TF' ,
                 mixing_beta = 0.5 ,
 /
 &IONS
                ion_dynamics = 'bfgs' ,
 /
ATOMIC_SPECIES
    C   12.01100  C.revpbe-n-kjpaw_psl.0.1.UPF 
   Br   79.90350  Br.revpbe-n-kjpaw_psl.0.2.UPF 
    O   15.99940  O.revpbe-n-kjpaw_psl.0.1.UPF 
    H   1.008000  H.revpbe-kjpaw_psl.0.1.UPF
ATOMIC_POSITIONS crystal 
C       -0.022125125  -0.014658601  -0.003301757
C        0.223905730  -0.025073590  -0.005037533
C        0.480436931  -0.014574735  -0.006631609
C        0.736894677   0.000941549  -0.005616306
C       -0.013276058   0.241926741  -0.004277443
C        0.064122517   0.152610567  -0.003140639
C        0.230990906   0.229169991  -0.004389345
C        0.304823337   0.136925545  -0.005594671
C        0.470813043   0.229339325  -0.007014693
C        0.561181976   0.152791904  -0.006771442
C        0.727749396   0.242158836  -0.006332746
C        0.817685865   0.162953416  -0.005358366
C       -0.020157047   0.487445625  -0.005560090
C        0.075132924   0.406602622  -0.005257196
C        0.252290938   0.484146406  -0.005923053
C        0.331149501   0.391144414  -0.005689167
C        0.532541805   0.391376643  -0.007164276
C        0.704241166   0.484587326  -0.006534464
C        0.803763905   0.406880496  -0.006269513
C       -0.033666521   0.731002262  -0.005051321
C        0.061322549   0.650163787  -0.005217437
C        0.237215650   0.730948246  -0.005795111
C        0.336412230   0.653165317  -0.006247377
C        0.508245805   0.746689343  -0.005267439
Br       0.788409478   0.888755449   0.244961048
C        0.712027443   0.747140514  -0.006583737
C        0.789390396   0.653477138  -0.006057154
C        0.054881475   0.895759500  -0.003955399
C        0.313756023   0.895772481  -0.006139004
C        0.570811302   0.908902997  -0.005958913
C        0.811056980   0.909008098  -0.005185067
O        0.654817464   0.667214393   0.210060093
O        0.493534185   0.621835720   0.207662900
H        0.481021758   0.648280965   0.145859987
K_POINTS automatic 
  4 4 1   0 0 0 

