 &CONTROL
                 calculation = 'bands' ,
                      outdir = './tmp/' ,
                  pseudo_dir = '/home/deleted/pseudo_psl' ,
                      prefix = 'GBr_op' ,
                   verbosity = 'high' ,
               etot_conv_thr = 1.0D-5 ,
               forc_conv_thr = 4.0D-4 ,
                       nstep = 1000 ,
                    dipfield = .true. ,
 /
 &SYSTEM
                       ibrav = 4,
                           A = 9.88 ,
                           C = 15 ,
                         nat = 34,
                        ntyp = 4,
                     ecutwfc = 40.424239707 ,
                     ecutrho = 404.24239707 ,
                 occupations = 'tetrahedra' ,
                     degauss = 0.01 ,
				   input_dft = 'vdW-DF' ,
    nspin = 2 ,
    starting_magnetization(1) = 0.5,
    starting_magnetization(2) = 0.5,
    starting_magnetization(3) = 0.5,
 /
 &ELECTRONS
            electron_maxstep = 50001,
                    conv_thr = 1.0D-6 ,
                 mixing_mode = 'local-TF' ,
                 mixing_beta = 0.5 ,
 /
ATOMIC_SPECIES
    C   12.01100  C.revpbe-n-kjpaw_psl.0.1.UPF 
   Br   79.90350  Br.revpbe-n-kjpaw_psl.0.2.UPF 
    O   15.99940  O.revpbe-n-kjpaw_psl.0.1.UPF 
    H   1.008000  H.revpbe-kjpaw_psl.0.1.UPF
ATOMIC_POSITIONS (crystal)
C        0.010063480   0.017598054  -0.006793565
C        0.256253698   0.007182603  -0.007660479
C        0.512849968   0.017607849  -0.007945894
C        0.769339298   0.033332116  -0.007162133
C        0.019409318   0.274441444  -0.006270066
C        0.096594699   0.184955338  -0.006748859
C        0.263515423   0.261489540  -0.007123517
C        0.337272551   0.169208063  -0.007895094
C        0.503284040   0.261460052  -0.007394451
C        0.593686806   0.184943000  -0.007524449
C        0.760321991   0.274436730  -0.006722682
C        0.850325298   0.195357975  -0.006721386
C        0.012594068   0.519884194  -0.005840263
C        0.108054590   0.439173461  -0.005883356
C        0.285415909   0.516778575  -0.005920447
C        0.363863786   0.423479792  -0.006324104
C        0.564950914   0.423483235  -0.006434430
C        0.736665399   0.516788852  -0.005996194
C        0.836425242   0.439173150  -0.006047729
C       -0.001464382   0.763355920  -0.006305733
C        0.093981047   0.682644215  -0.006135443
C        0.270135395   0.763355915  -0.006601250
C        0.369852419   0.685702843  -0.006274520
C        0.541594288   0.778986697  -0.006753989
Br       0.570219170   0.959805181   0.230093909
C        0.742785517   0.779057209  -0.006322121
C        0.821162580   0.685728829  -0.006021423
C        0.087188591   0.928082344  -0.006923664
C        0.346218254   0.928082572  -0.007570535
C        0.603261907   0.941048339  -0.007565522
C        0.843118520   0.941066391  -0.006682771
O        0.374070875   0.237923879   0.221170923
O        0.243920888   0.120668333   0.210280693
H        0.563803097   0.005702604   0.320312360
K_POINTS automatic 
  20 20 1   0 0 0 

