 &CONTROL
                 calculation = 'scf' ,
                      outdir = './tmp_subs/' ,
                  pseudo_dir = '/home/deleted/pseudo_psl' ,
                      prefix = 'GCl_ip-subs' ,
                   verbosity = 'high' ,
               etot_conv_thr = 1.0D-5 ,
               forc_conv_thr = 4.0D-4 ,
                       nstep = 1000 ,
                    dipfield = .true. ,
 /
 &SYSTEM
                       ibrav = 4,
                           A = 9.88 ,
                           C = 15 ,
                         nat = 31,
                        ntyp = 2,
                     ecutwfc = 40.424239707 ,
                     ecutrho = 404.24239707 ,
                 occupations = 'smearing' ,
                     degauss = 0.01 ,
				   input_dft = 'vdW-DF' ,
    nspin = 2 ,
    starting_magnetization(1) = 0.5,
    starting_magnetization(2) = 0.5,
 /
 &ELECTRONS
            electron_maxstep = 50001,
                    conv_thr = 1.0D-6 ,
                 mixing_mode = 'local-TF' ,
                 mixing_beta = 0.5 ,
 /
ATOMIC_SPECIES
    C   12.01100  C.revpbe-n-kjpaw_psl.0.1.UPF 
   Cl   35.45200  Cl.revpbe-n-kjpaw_psl.0.3.0.UPF 
ATOMIC_POSITIONS (crystal)
C        0.001508491   0.001969183  -0.002662295
C        0.254222160   0.008444319  -0.002010142
C        0.500460692   0.001969183  -0.002662295
C        0.748396510  -0.003206979  -0.003432370
C       -0.001650206   0.249449598  -0.001902168
C        0.084140756   0.169525177  -0.002186933
C        0.252962685   0.257517212  -0.002172357
C        0.337414784   0.174829568  -0.002138387
C        0.504554527   0.257517212  -0.002172357
C        0.585384420   0.169525177  -0.002186933
C        0.751099803   0.249449598  -0.001902168
C        0.831547724   0.163095449  -0.002376738
C        0.000902069   0.501804137  -0.001393435
C        0.078940608   0.415985348  -0.001489062
C        0.243317253   0.501220951  -0.001944321
C        0.323534299   0.422271146  -0.002140993
C        0.598736847   0.422271146  -0.002140993
C        0.757903698   0.501220951  -0.001944321
C        0.837044739   0.415985348  -0.001489062
C        0.006838264   0.755656029  -0.002053514
C        0.084942675   0.669885353  -0.001602546
C        0.248817765   0.755656029  -0.002053514
C        0.328025926   0.670494845  -0.002748658
C        0.487169557   0.749435291  -0.004071300
Cl       0.543342593   0.586685188  -0.003500337
C        0.762265733   0.749435291  -0.004071300
C        0.842468918   0.670494845  -0.002748658
C        0.087381660   0.922117869  -0.002207846
C        0.334736209   0.922117869  -0.002207846
C        0.581317808   0.914152652  -0.003538582
C        0.832834842   0.914152652  -0.003538582
K_POINTS automatic 
  16 16 1   0 0 0 

