 &CONTROL
                 calculation = 'scf' ,
                      outdir = './tmp/' ,
                  pseudo_dir = '/home/deleted/pseudo_psl' ,
                      prefix = 'GF_op' ,
                   verbosity = 'high' ,
               etot_conv_thr = 1.0D-5 ,
               forc_conv_thr = 4.0D-4 ,
                       nstep = 1000 ,
                    dipfield = .true. ,
 /
 &SYSTEM
                       ibrav = 4,
                           A = 9.88 ,
                           C = 15 ,
                         nat = 34,
                        ntyp = 4,
                     ecutwfc = 40.424239707 ,
                     ecutrho = 404.24239707 ,
                 occupations = 'smearing' ,
                     degauss = 0.01 ,
				   input_dft = 'vdW-DF' ,
    nspin = 2 ,
    starting_magnetization(1) = 0.5,
    starting_magnetization(2) = 0.5,
    starting_magnetization(3) = 0.5,
 /
 &ELECTRONS
            electron_maxstep = 50001,
                    conv_thr = 1.0D-6 ,
                 mixing_mode = 'local-TF' ,
                 mixing_beta = 0.5 ,
 /
ATOMIC_SPECIES
    C   12.01100  C.revpbe-n-kjpaw_psl.0.1.UPF 
    F   18.99800  F.revpbe-n-kjpaw_psl.0.1.UPF 
    O   15.99940  O.revpbe-n-kjpaw_psl.0.1.UPF 
    H   1.008000  H.revpbe-kjpaw_psl.0.1.UPF
ATOMIC_POSITIONS (crystal)
C       -0.009098613  -0.002883784   0.001556408
C        0.239820524  -0.005145632   0.007446202
C        0.490557186  -0.002727826   0.007466688
C        0.739473518  -0.001991071  -0.001344180
C       -0.008909590   0.247630255   0.001741402
C        0.072693958   0.163413335   0.006532264
C        0.239022475   0.244399668   0.008814127
C        0.322069452   0.160429332   0.006612591
C        0.488101288   0.243941921   0.001335065
C        0.573356868   0.163095300  -0.000260024
C        0.739427418   0.247650583  -0.001649058
C        0.823512283   0.164470393  -0.001560645
C       -0.010227640   0.496800917   0.000874676
C        0.075480706   0.414125133   0.005535444
C        0.244592820   0.497852224   0.015494395
C        0.322841343   0.407969182   0.011477440
C        0.568466236   0.408131679  -0.002490684
C        0.734783255   0.496611262  -0.011691830
C        0.821006033   0.414229580  -0.004783535
C       -0.010906856   0.746794203  -0.001733524
C        0.072569791   0.662808422   0.004136304
C        0.239649174   0.745302507   0.012637301
C        0.323053480   0.663870889   0.023801836
C        0.488414787   0.758241798   0.052382973
F        0.626571143   0.702275950  -0.089770495
C        0.758657665   0.760191325  -0.038444716
C        0.823297250   0.665551558  -0.018371373
C        0.072619877   0.912510579   0.002783993
C        0.323173166   0.913010882   0.011011687
C        0.575452112   0.917423151   0.013798422
C        0.826498200   0.916865331  -0.012047288
O        0.547323813   0.714342174   0.110614405
O        0.483906246   0.483680483   0.007059928
H        0.695355994   0.551846432   0.201760444
K_POINTS automatic 
  16 16 1   0 0 0 

