 &CONTROL
                 calculation = 'scf' ,
                      outdir = './tmp_subs/' ,
                  pseudo_dir = '/home/deleted/pseudo_psl' ,
                      prefix = 'GCl_ip_subs' ,
                   verbosity = 'high' ,
               etot_conv_thr = 1.0D-5 ,
               forc_conv_thr = 4.0D-4 ,
                       nstep = 1000 ,
                    dipfield = .true. ,
 /
 &SYSTEM
                       ibrav = 4,
                           A = 9.88 ,
                           C = 15 ,
                         nat = 31,
                        ntyp = 2,
                     ecutwfc = 40.424239707 ,
                     ecutrho = 404.24239707 ,
                 occupations = 'smearing' ,
                     degauss = 0.01 ,
				   input_dft = 'vdW-DF' ,
 /
 &ELECTRONS
            electron_maxstep = 50001,
                    conv_thr = 1.0D-6 ,
                 mixing_mode = 'local-TF' ,
                 mixing_beta = 0.5 ,
 /
ATOMIC_SPECIES
    C   12.01100  C.revpbe-n-kjpaw_psl.0.1.UPF 
   Cl   35.45200  Cl.revpbe-n-kjpaw_psl.0.3.0.UPF 
ATOMIC_POSITIONS crystal 
C       -0.008025700  -0.003002155   0.011285076
C        0.241511402  -0.004701841   0.017721404
C        0.492514599  -0.002243321   0.017799946
C        0.741598041  -0.001557894   0.007615419
C       -0.007099169   0.248125093   0.011575883
C        0.074086719   0.163558582   0.016751357
C        0.240661942   0.244757832   0.018868097
C        0.323890117   0.160984624   0.016752499
C        0.490035589   0.244704877   0.011474500
C        0.575215075   0.163665788   0.010014935
C        0.741299085   0.248220968   0.008330963
C        0.825409304   0.164974671   0.008203302
C       -0.008461507   0.497317990   0.010798714
C        0.077241156   0.414606915   0.015458570
C        0.246331500   0.498336965   0.025397345
C        0.324515546   0.408468507   0.020866246
C        0.570510677   0.408966201   0.006501879
C        0.736967170   0.497535393  -0.003261199
C        0.822883712   0.414835431   0.004801679
C       -0.009681931   0.747175701   0.008229193
C        0.074030138   0.663246738   0.014578739
C        0.241262994   0.745753476   0.023272172
C        0.324788337   0.664307129   0.034074235
C        0.490905595   0.758408273   0.061915560
Cl       0.617619103   0.700348744  -0.119546668
C        0.760605655   0.760804499  -0.035267139
C        0.825094995   0.666422200  -0.010931802
C        0.074254152   0.912921882   0.012731507
C        0.325003949   0.913481616   0.021542014
C        0.577623466   0.917902974   0.023566462
C        0.827864927   0.916698988  -0.004740094
K_POINTS automatic 
  16 16 1   0 0 0 

