 &CONTROL
                 calculation = 'relax' ,
                      outdir = './tmp/' ,
                  pseudo_dir = '/home/deleted/pseudo_psl' ,
                      prefix = 'GCl_ip' ,
                   verbosity = 'high' ,
               etot_conv_thr = 1.0D-5 ,
               forc_conv_thr = 4.0D-4 ,
                       nstep = 1000 ,
                    dipfield = .true. ,
 /
 &SYSTEM
                       ibrav = 4,
                           A = 9.88 ,
                           C = 15 ,
                         nat = 33,
                        ntyp = 3,
                     ecutwfc = 40.424239707 ,
                     ecutrho = 404.24239707 ,
                 occupations = 'smearing' ,
                     degauss = 0.01 ,
				   input_dft = 'vdW-DF' ,
 /
 &ELECTRONS
            electron_maxstep = 50001,
                    conv_thr = 1.0D-6 ,
                 mixing_mode = 'local-TF' ,
                 mixing_beta = 0.5 ,
 /
 &IONS
                ion_dynamics = 'bfgs' ,
 /
ATOMIC_SPECIES
    C   12.01100  C.revpbe-n-kjpaw_psl.0.1.UPF 
   Cl   35.45200  Cl.revpbe-n-kjpaw_psl.0.3.0.UPF 
    O   15.99940  O.revpbe-n-kjpaw_psl.0.1.UPF 
ATOMIC_POSITIONS crystal 
C       -0.005290363   0.006630849   0.018067698
C        0.240945806   0.001106096   0.025272384
C        0.486590338  -0.010804854   0.013033670
C        0.738149308  -0.003230861   0.006589320
C       -0.009448554   0.248116426   0.027970240
C        0.080936795   0.173215574   0.026563797
C        0.247894920   0.252946665   0.026831941
C        0.328990241   0.166207355   0.020847781
C        0.494462026   0.242007747   0.001711172
C        0.574833916   0.156511321   0.006264428
C        0.740851165   0.245901456   0.014111985
C        0.822537516   0.161380567   0.016950100
C       -0.007114655   0.500467595   0.021062218
C        0.073408575   0.414091205   0.030409591
C        0.239367238   0.493797308   0.029761199
C        0.326683660   0.416562808   0.023794648
C        0.585081504   0.397828974  -0.022772018
C        0.747966545   0.496071462  -0.014814957
C        0.825766553   0.414289215   0.011072088
C       -0.013245300   0.752852175   0.013282753
C        0.070239034   0.666952805   0.021697690
C        0.236728166   0.746077889   0.025991338
C        0.316917937   0.662151767   0.028438794
C        0.481160279   0.737193945   0.035422596
Cl       0.607296683   0.702452937  -0.113379810
C        0.774231258   0.776988046  -0.044337220
C        0.831084425   0.672779484  -0.021834263
C        0.072625768   0.918737452   0.023194275
C        0.321186895   0.914284587   0.022702674
C        0.571144761   0.905269999   0.016014115
C        0.831132290   0.924282504  -0.004864725
O        0.488374789   0.504201473   0.035119787
O        0.545177143   0.676011368   0.079824711
K_POINTS automatic 
  4 4 1   0 0 0 

