 &CONTROL
                 calculation = 'scf' ,
                      outdir = './tmp/' ,
                  pseudo_dir = '/home/deleted/pseudo_psl' ,
                      prefix = 'GCl_ip' ,
                   verbosity = 'high' ,
               etot_conv_thr = 1.0D-5 ,
               forc_conv_thr = 4.0D-4 ,
                       nstep = 1000 ,
                    dipfield = .true. ,
 /
 &SYSTEM
                       ibrav = 4,
                           A = 9.88 ,
                           C = 15 ,
                         nat = 34,
                        ntyp = 4,
                     ecutwfc = 40.424239707 ,
                     ecutrho = 404.24239707 ,
                 occupations = 'smearing' ,
                     degauss = 0.01 ,
				   input_dft = 'vdW-DF' ,
    nspin = 2 ,
    starting_magnetization(1) = 0.5,
    starting_magnetization(2) = 0.5,
    starting_magnetization(3) = 0.5,
 /
 &ELECTRONS
            electron_maxstep = 50001,
                    conv_thr = 1.0D-6 ,
                 mixing_mode = 'local-TF' ,
                 mixing_beta = 0.5 ,
 /
ATOMIC_SPECIES
    C   12.01100  C.revpbe-n-kjpaw_psl.0.1.UPF 
   Cl   35.45200  Cl.revpbe-n-kjpaw_psl.0.3.0.UPF 
    O   15.99940  O.revpbe-n-kjpaw_psl.0.1.UPF 
    H   1.008000  H.revpbe-kjpaw_psl.0.1.UPF
ATOMIC_POSITIONS (crystal)
C        0.001832811   0.002683597  -0.001923916
C        0.254285266   0.008867596  -0.002095146
C        0.500530660   0.002449738  -0.003166676
C        0.748526018  -0.002673762  -0.003128917
C       -0.001420673   0.250031479  -0.002675321
C        0.084385994   0.170084860  -0.003028007
C        0.252924531   0.257928978  -0.004521042
C        0.337428817   0.175193732  -0.003143997
C        0.504642219   0.257671503  -0.002530483
C        0.585392411   0.169854078  -0.001989097
C        0.751163503   0.249962639  -0.001297508
C        0.831714326   0.163660404  -0.002008956
C        0.000967303   0.502226925  -0.001405372
C        0.079202481   0.416545280  -0.003485760
C        0.243408301   0.501593276  -0.006744092
C        0.323695333   0.422373180  -0.007668610
C        0.598146918   0.422190654  -0.002380394
C        0.757648694   0.501516667  -0.000522203
C        0.837016963   0.416489174  -0.000344678
C        0.006770682   0.755991014  -0.000390882
C        0.084952339   0.670224859  -0.001464649
C        0.248866791   0.755931880  -0.003657761
C        0.328047558   0.670906221  -0.006887643
C        0.487537138   0.750089292  -0.007796326
Cl       0.542555170   0.585972496  -0.006753856
C        0.762209865   0.750278200  -0.002330340
C        0.842380813   0.670958791  -0.000506234
C        0.087454534   0.922542398  -0.001329673
C        0.334767289   0.922483508  -0.002854072
C        0.581228056   0.914548737  -0.004635625
C        0.833257535   0.914828812  -0.002482035
O        0.418588622   0.564484772   0.192991528
O        0.421576690   0.608989501   0.281059283
H        0.440031283   0.716372638   0.276536837
K_POINTS automatic 
  16 16 1   0 0 0 

