&PROJWFC
  outdir = './tmp',
  prefix = 'O2',
  filpdos = 'O2-pdos',
  ngauss = 1,
  degauss = 0.01,
  DeltaE = 0.01,
  lsym = .true.
/
