 &CONTROL
                 calculation = 'relax' ,
                      outdir = './tmp/' ,
                  pseudo_dir = '/home/deleted/pseudo_psl' ,
                      prefix = 'GF_op' ,
                   verbosity = 'high' ,
               forc_conv_thr = 4.0D-4 ,
                       nstep = 1000 ,
                    dipfield = .true. ,
 /
 &SYSTEM
                       ibrav = 4,
                           A = 9.88 ,
                           C = 15 ,
                         nat = 34,
                        ntyp = 4,
                     ecutwfc = 40.424239707 ,
                     ecutrho = 404.24239707 ,
                 occupations = 'smearing' ,
                     degauss = 0.01 ,
				   input_dft = 'vdW-DF' ,
    nspin = 2 ,
    starting_magnetization(1) = 0.5,
    starting_magnetization(2) = 0.5,
    starting_magnetization(3) = 0.5,
 /
 &ELECTRONS
            electron_maxstep = 50001,
                    conv_thr = 1.0D-6 ,
                 mixing_mode = 'local-TF' ,
                 mixing_beta = 0.5 ,
    diagonalization = 'cg' ,
 /
 &IONS
                ion_dynamics = 'bfgs' ,
 /
ATOMIC_SPECIES
    C   12.01100  C.revpbe-n-kjpaw_psl.0.1.UPF 
    F   18.99800  F.revpbe-n-kjpaw_psl.0.1.UPF 
    O   15.99940  O.revpbe-n-kjpaw_psl.0.1.UPF 
    H   1.008000  H.revpbe-kjpaw_psl.0.1.UPF
ATOMIC_POSITIONS (crystal)
C       -0.015229058   0.000240580  -0.003939708
C        0.231667299  -0.005034752   0.004046375
C        0.483712419   0.001264217   0.008604070
C        0.733113040   0.002455962  -0.003187866
C       -0.014349244   0.251442818  -0.003865328
C        0.067910592   0.167173169  -0.000050723
C        0.235959962   0.248744085   0.002169368
C        0.313521507   0.159267514   0.003392682
C        0.479101054   0.248284656   0.001442006
C        0.565601365   0.167586253   0.001562882
C        0.731693336   0.251825598  -0.001363447
C        0.817171257   0.169127284  -0.004018766
C       -0.017628641   0.499327570  -0.002946281
C        0.071376980   0.417302226  -0.001320393
C        0.246113786   0.500277529   0.006327932
C        0.327873099   0.410714246   0.002859614
C        0.549677276   0.411145731  -0.003373750
C        0.718646687   0.499296626  -0.010089778
C        0.810835364   0.417694625  -0.004682004
C       -0.019088284   0.748160700  -0.005431618
C        0.065327968   0.664918698  -0.000424995
C        0.232523191   0.745912492   0.008466724
C        0.317174658   0.665074009   0.017122437
C        0.482122211   0.757784021   0.046339632
F        0.605117490   0.691940714  -0.077757140
C        0.748334041   0.761306077  -0.036822153
C        0.813945917   0.667860498  -0.018333444
C        0.064615324   0.913565870  -0.002337555
C        0.316029206   0.913922034   0.009551772
C        0.569915231   0.922358538   0.013400963
C        0.819237634   0.920214786  -0.015105285
O        0.539978779   0.705356376   0.099616418
O        0.898448740   0.688691439   0.170790922
H        0.813247248   0.691464127   0.202487693
K_POINTS automatic 
  4 4 1   0 0 0 

