 &CONTROL
                 calculation = 'bands' ,
                      outdir = './tmp/' ,
                  pseudo_dir = '/home/deleted/pseudo_psl' ,
                      prefix = 'GF_op' ,
                   verbosity = 'high' ,
               etot_conv_thr = 1.0D-5 ,
               forc_conv_thr = 4.0D-4 ,
                       nstep = 1000 ,
                    dipfield = .true. ,
 /
 &SYSTEM
                       ibrav = 4,
                           A = 9.88 ,
                           C = 15 ,
                         nat = 33,
                        ntyp = 3,
                     ecutwfc = 40.424239707 ,
                     ecutrho = 404.24239707 ,
                 occupations = 'tetrahedra' ,
                     degauss = 0.01 ,
				   input_dft = 'vdW-DF' ,
    nspin = 2 ,
    starting_magnetization(1) = 0.5,
    starting_magnetization(2) = 0.5,
    starting_magnetization(3) = 0.5,
 /
 &ELECTRONS
            electron_maxstep = 50001,
                    conv_thr = 1.0D-6 ,
                 mixing_mode = 'local-TF' ,
                 mixing_beta = 0.5 ,
 /
ATOMIC_SPECIES
    C   12.01100  C.revpbe-n-kjpaw_psl.0.1.UPF 
    F   18.99800  F.revpbe-n-kjpaw_psl.0.1.UPF 
    O   15.99940  O.revpbe-n-kjpaw_psl.0.1.UPF 
ATOMIC_POSITIONS (crystal)
C        0.007678235   0.006087553  -0.005354169
C        0.254243709   0.001788130  -0.013539907
C        0.505572534   0.007424796  -0.013447522
C        0.758528993   0.009710547  -0.000267548
C        0.009491924   0.257400301  -0.007345871
C        0.091124388   0.172850532  -0.009902608
C        0.258775962   0.253852610  -0.012758034
C        0.335784454   0.164841360  -0.013274326
C        0.501904976   0.254595223  -0.011697920
C        0.588532744   0.173732475  -0.010390811
C        0.754792328   0.257393700  -0.008592779
C        0.840767161   0.174413494  -0.005090319
C        0.006106212   0.505356719  -0.010371546
C        0.095659782   0.422876119  -0.011353270
C        0.269250621   0.504094864  -0.016202211
C        0.350760606   0.416383846  -0.013405054
C        0.572458150   0.416969643  -0.008274697
C        0.741986659   0.504688440  -0.002191150
C        0.834235842   0.423020924  -0.007427640
C        0.003700791   0.753727240  -0.008112059
C        0.088250228   0.670449974  -0.013448512
C        0.255951060   0.753522927  -0.017502289
C        0.344158041   0.672634012  -0.021197396
C        0.503739576   0.767022998  -0.025977048
F        0.637874111   0.694796194   0.078775827
C        0.772268615   0.765829572   0.028542594
C        0.837242655   0.673099655   0.005705248
C        0.087489769   0.919683884  -0.009033295
C        0.339112421   0.919655272  -0.016019546
C        0.591718095   0.926115092  -0.012686220
C        0.842433442   0.926150842   0.008886559
O        0.273337313   0.411783560   0.203878752
O        0.311735263   0.551380836   0.212408100
K_POINTS automatic 
  20 20 1   0 0 0 

