 &CONTROL
                 calculation = 'scf' ,
                      outdir = './tmp_subs/' ,
                  pseudo_dir = '/home/deleted/pseudo_psl' ,
                      prefix = 'GBr_ip_subs' ,
                   verbosity = 'high' ,
               etot_conv_thr = 1.0D-5 ,
               forc_conv_thr = 4.0D-4 ,
                       nstep = 1000 ,
                    dipfield = .true. ,
 /
 &SYSTEM
                       ibrav = 4,
                           A = 9.88 ,
                           C = 15 ,
                         nat = 31,
                        ntyp = 2,
                     ecutwfc = 40.424239707 ,
                     ecutrho = 404.24239707 ,
                 occupations = 'smearing' ,
                     degauss = 0.01 ,
				   input_dft = 'vdW-DF' ,
 /
 &ELECTRONS
            electron_maxstep = 50001,
                    conv_thr = 1.0D-6 ,
                 mixing_mode = 'local-TF' ,
                 mixing_beta = 0.5 ,
 /
ATOMIC_SPECIES
    C   12.01100  C.revpbe-n-kjpaw_psl.0.1.UPF 
   Br   79.90350  Br.revpbe-n-kjpaw_psl.0.2.UPF 
ATOMIC_POSITIONS crystal 
C        0.002055629   0.002419349   0.002458111
C        0.254608064   0.009216128   0.005693184
C        0.500363721   0.002419349   0.002458111
C        0.748524437  -0.002951127  -0.003792035
C       -0.001785020   0.249399726   0.007733796
C        0.083965988   0.169624726   0.002456546
C        0.251780843   0.256748346  -0.005164052
C        0.337486868   0.174973737  -0.003790691
C        0.504967504   0.256748346  -0.005164052
C        0.585658737   0.169624726   0.002456546
C        0.751184746   0.249399726   0.007733796
C        0.831406633   0.162813266   0.005692065
C        0.001001881   0.502003764   0.018219067
C        0.078772962   0.416063396   0.012802126
C        0.241703663   0.501086630   0.001667926
C        0.318360794   0.420077005  -0.012483072
C        0.601716210   0.420077005  -0.012483072
C        0.759382967   0.501086630   0.001667926
C        0.837290433   0.416063396   0.012802126
C        0.007239256   0.755977545   0.012805877
C        0.085017106   0.670034214   0.018221657
C        0.248738290   0.755977545   0.012805877
C        0.326628983   0.670939866   0.001667727
C        0.484284424   0.751951566  -0.012483278
Br       0.543009952   0.586019904  -0.038341598
C        0.767667143   0.751951566  -0.012483278
C        0.844310883   0.670939866   0.001667727
C        0.087797665   0.922629507   0.007737447
C        0.334831841   0.922629507   0.007737447
C        0.581046878   0.915286913  -0.005164113
C        0.834240034   0.915286913  -0.005164113
K_POINTS automatic 
  16 16 1   0 0 0 

