 &CONTROL
                 calculation = 'relax' ,
                      outdir = './tmp/' ,
                  pseudo_dir = '/home/deleted/pseudo_psl' ,
                      prefix = 'GBr_ip' ,
                   verbosity = 'high' ,
               etot_conv_thr = 1.0D-5 ,
               forc_conv_thr = 4.0D-4 ,
                       nstep = 1000 ,
                    dipfield = .true. ,
 /
 &SYSTEM
                       ibrav = 4,
                           A = 9.88 ,
                           C = 15 ,
                         nat = 34,
                        ntyp = 4,
                     ecutwfc = 40.424239707 ,
                     ecutrho = 404.24239707 ,
                 occupations = 'smearing' ,
                     degauss = 0.01 ,
				   input_dft = 'vdW-DF' ,
 /
 &ELECTRONS
            electron_maxstep = 50001,
                    conv_thr = 1.0D-6 ,
                 mixing_mode = 'local-TF' ,
                 mixing_beta = 0.5 ,
 /
 &IONS
                ion_dynamics = 'bfgs' ,
 /
ATOMIC_SPECIES
    C   12.01100  C.revpbe-n-kjpaw_psl.0.1.UPF 
   Br   79.90350  Br.revpbe-n-kjpaw_psl.0.2.UPF 
    O   15.99940  O.revpbe-n-kjpaw_psl.0.1.UPF 
    H   1.008000  H.revpbe-kjpaw_psl.0.1.UPF
ATOMIC_POSITIONS crystal 
C        0.002029835   0.006426678   0.003276926
C        0.254753319   0.013185675   0.004003099
C        0.500599522   0.006492090   0.001062180
C        0.748582881   0.000764084  -0.002136697
C       -0.001902182   0.253259537   0.008581135
C        0.083936919   0.173383180   0.005357864
C        0.251891602   0.260887126   0.000046020
C        0.337736714   0.179183115  -0.002297817
C        0.505272875   0.260950588  -0.005745149
C        0.585726637   0.173527708  -0.000679302
C        0.751318571   0.253431117   0.003785827
C        0.831446163   0.166745941   0.004543007
C        0.000844236   0.506046427   0.013533913
C        0.078412244   0.419813825   0.013063931
C        0.242022961   0.504966936   0.008282814
C        0.320203636   0.424652841  -0.001839110
C        0.600899024   0.424458680  -0.010766421
C        0.759530971   0.505148135  -0.001497957
C        0.837484495   0.420027803   0.007024369
C        0.007429801   0.760062721   0.008118922
C        0.084973694   0.674113526   0.013186547
C        0.248695961   0.760234788   0.011024913
C        0.327041554   0.674898274   0.007151186
C        0.485439608   0.755059088  -0.002989953
Br       0.541891545   0.589752364  -0.027618336
C        0.766312376   0.755605778  -0.009556175
C        0.844425578   0.675009251  -0.000601250
C        0.087970890   0.926692730   0.005927439
C        0.334955768   0.926638375   0.005360660
C        0.581031305   0.918922396  -0.002391719
C        0.834349195   0.919040831  -0.003471871
O        0.584156425   0.496257641   0.184694459
O        0.563550071   0.613878074   0.140350469
H        0.479319004   0.425149084   0.208243303
K_POINTS automatic 
  4 4 1   0 0 0 

