 &CONTROL
                 calculation = 'bands' ,
                      outdir = './tmp/' ,
                  pseudo_dir = '/home/deleted/pseudo_psl' ,
                      prefix = 'GBr_ip' ,
                    dipfield = .true. ,
                   verbosity = 'high',
                       nstep = 1000,
               forc_conv_thr = 4.0D-4,
               etot_conv_thr = 1.0D-5
 /
 &SYSTEM
                       ibrav = 4,
                           A = 9.88 ,
                           C = 15 ,
                         nat = 31,
                        ntyp = 2,
                     ecutwfc = 40.424239707 ,
                     ecutrho = 404.24239707 ,
                 occupations = 'tetrahedra' ,
                     degauss = 0.01 ,
				   input_dft = 'vdW-DF' ,
 /
 &ELECTRONS
            electron_maxstep = 50001,
                    conv_thr = 1.0D-6 ,
                 mixing_mode = 'local-TF' ,
                 mixing_beta = 0.5 ,
 /
ATOMIC_SPECIES
    C   12.01100  C.revpbe-n-kjpaw_psl.0.1.UPF 
   Br   79.90350  Br.revpbe-n-kjpaw_psl.0.2.UPF 
ATOMIC_POSITIONS crystal 
C       -0.001856231  -0.008570496   0.000000000
C        0.250851345  -0.002392270   0.000000000
C        0.504865883  -0.002427681   0.000000000
C        0.751387564  -0.008568801   0.000000000
C        0.001006824   0.243984962   0.000000000
C        0.078033945   0.157859792   0.000000000
C        0.241321174   0.242829856   0.000000000
C        0.318550293   0.160421441   0.000000000
Br       0.542991962   0.327970682   0.000000000
C        0.599914156   0.160399377   0.000000000
C        0.759542978   0.242847678   0.000000000
C        0.837858501   0.157870800   0.000000000
C        0.007954396   0.498035284   0.000000000
C        0.084943261   0.411871661   0.000000000
C        0.248096845   0.498020223   0.000000000
C        0.326442388   0.413076485   0.000000000
C        0.486079548   0.495505060   0.000000000
C        0.767476428   0.495552561   0.000000000
C        0.844664168   0.413097375   0.000000000
C        0.002505644   0.744880488   0.000000000
C        0.087916801   0.664471605   0.000000000
C        0.254350857   0.750614037   0.000000000
C        0.334624337   0.664458469   0.000000000
C        0.500446088   0.744842363   0.000000000
C        0.581175727   0.658321062   0.000000000
C        0.748749528   0.739417342   0.000000000
C        0.835250963   0.658366991   0.000000000
C        0.083593316   0.911056934   0.000000000
C        0.337321809   0.916518894   0.000000000
C        0.585569327   0.911023455   0.000000000
C        0.831703505   0.905311046   0.000000000
K_POINTS crystal_b 
4
0.0000000000    0.0000000000    0.0000000000 17
0.0000000000    0.5000000000    0.0000000000 10
0.3333333333    0.3333333333    0.0000000000 20
0.0000000000    0.0000000000    0.0000000000 1

