 &CONTROL
                 calculation = 'bands' ,
                      outdir = './tmp/' ,
                  pseudo_dir = '/home/deleted/pseudo_psl' ,
                      prefix = 'GCl_op' ,
                   verbosity = 'high' ,
               etot_conv_thr = 1.0D-5 ,
               forc_conv_thr = 4.0D-4 ,
                       nstep = 1000 ,
                    dipfield = .true. ,
 /
 &SYSTEM
                       ibrav = 4,
                           A = 9.88 ,
                           C = 15 ,
                         nat = 32,
                        ntyp = 3,
                     ecutwfc = 40.424239707 ,
                     ecutrho = 404.24239707 ,
                 occupations = 'tetrahedra' ,
                     degauss = 0.01 ,
				   input_dft = 'vdW-DF' ,
 /
 &ELECTRONS
            electron_maxstep = 50001,
                    conv_thr = 1.0D-6 ,
                 mixing_mode = 'local-TF' ,
                 mixing_beta = 0.5 ,
 /
ATOMIC_SPECIES
    C   12.01100  C.revpbe-n-kjpaw_psl.0.1.UPF 
   Cl   35.45200  Cl.revpbe-n-kjpaw_psl.0.3.0.UPF 
    O   15.99940  O.revpbe-n-kjpaw_psl.0.1.UPF 
ATOMIC_POSITIONS crystal 
C        0.010614931   0.003196687  -0.005127225
C        0.256801260  -0.007294143  -0.005127828
C        0.513371820   0.003166367  -0.005356496
C        0.769457850   0.018363957  -0.005440375
C        0.019623993   0.259917580  -0.005267211
C        0.097005941   0.170420866  -0.004932714
C        0.263949333   0.247132782  -0.004935019
C        0.337981259   0.155206121  -0.004771283
C        0.503933827   0.247077454  -0.004976597
C        0.594207788   0.170349912  -0.004990893
C        0.761080239   0.259868659  -0.005180711
C        0.850838029   0.180882092  -0.005154790
C        0.013170473   0.505091369  -0.006144006
C        0.108155997   0.424662263  -0.005962871
C        0.285943281   0.502457740  -0.006419722
C        0.363965384   0.409421351  -0.005734788
C        0.566100754   0.409350149  -0.005552971
C        0.737451053   0.502427268  -0.005925166
C        0.837503076   0.424659596  -0.005692449
C       -0.000395095   0.748979969  -0.006055678
C        0.094946462   0.668593341  -0.006474525
C        0.270256667   0.748957776  -0.006681723
C        0.370310693   0.671205046  -0.007097138
C        0.541338635   0.764103314  -0.006677684
Cl       0.468027994   0.664606253   0.213674170
C        0.743482535   0.764266450  -0.006217110
C        0.821892746   0.671234136  -0.006209315
C        0.087994949   0.913733854  -0.005388325
C        0.346516156   0.913712806  -0.005744929
C        0.603645644   0.926505903  -0.005857364
C        0.843595888   0.926467660  -0.005587793
O        0.293510391   0.620569062   0.181332535
K_POINTS crystal_b 
4
0.0000000000    0.0000000000    0.0000000000 17
0.0000000000    0.5000000000    0.0000000000 10
0.3333333333    0.3333333333    0.0000000000 20
0.0000000000    0.0000000000    0.0000000000 1

