 &CONTROL
                 calculation = 'scf' ,
                      outdir = './tmp/' ,
                  pseudo_dir = '/home/deleted/pseudo_psl' ,
                      prefix = 'GI_op' ,
                   verbosity = 'high' ,
               etot_conv_thr = 1.0D-5 ,
               forc_conv_thr = 4.0D-4 ,
                       nstep = 1000 ,
                    dipfield = .true. ,
 /
 &SYSTEM
                       ibrav = 4,
                           A = 9.88 ,
                           C = 15 ,
                         nat = 32,
                        ntyp = 3,
                     ecutwfc = 40.424239707 ,
                     ecutrho = 404.24239707 ,
                 occupations = 'smearing' ,
                     degauss = 0.01 ,
				   input_dft = 'vdW-DF' ,
    nspin = 2 ,
    starting_magnetization(1) = 0.5,
    starting_magnetization(2) = 0.5,
    starting_magnetization(3) = 0.5,
 /
 &ELECTRONS
            electron_maxstep = 50001,
                    conv_thr = 1.0D-6 ,
                 mixing_mode = 'local-TF' ,
                 mixing_beta = 0.5 ,
 /
ATOMIC_SPECIES
    C   12.01100  C.revpbe-n-kjpaw_psl.0.1.UPF 
    I  126.90400  I.revpbe-n-kjpaw_psl.0.2.UPF 
    O   15.99940  O.revpbe-n-kjpaw_psl.0.1.UPF 
ATOMIC_POSITIONS (crystal)
C       -0.009252924  -0.003114615  -0.005147941
C        0.236989393  -0.013565987  -0.004739903
C        0.493636707  -0.003097268  -0.004592911
C        0.749845042   0.012288397  -0.004898597
C       -0.000056836   0.253673848  -0.004181549
C        0.077226804   0.164167062  -0.004343551
C        0.244218221   0.240884777  -0.004331836
C        0.318136731   0.148796142  -0.004230609
C        0.484121670   0.240876462  -0.004265994
C        0.574398099   0.164178086  -0.004165686
C        0.741192161   0.253686479  -0.004127335
C        0.831057115   0.174666259  -0.004102248
C       -0.006817299   0.498946336  -0.005132146
C        0.088537950   0.418474464  -0.004710884
C        0.266353558   0.496289128  -0.005310104
C        0.344615989   0.403005300  -0.004932939
C        0.545751607   0.403034641  -0.004945489
C        0.717274772   0.496228245  -0.005539939
C        0.817319633   0.418493373  -0.004801257
C       -0.020592070   0.742667498  -0.006060503
C        0.074821812   0.662199466  -0.005754822
C        0.250727664   0.742625614  -0.005692459
C        0.350613767   0.664927116  -0.006086182
C        0.522360753   0.758092870  -0.006320621
I        0.703881953   0.699118363   0.250303972
C        0.723173088   0.758116879  -0.007227770
C        0.801628506   0.664999103  -0.006595330
C        0.068079857   0.907440974  -0.005399716
C        0.326854815   0.907441345  -0.005003906
C        0.583931857   0.920263733  -0.005255619
C        0.823763766   0.920190392  -0.005949776
O        0.526205835   0.634005522   0.170210316
K_POINTS automatic 
  16 16 1   0 0 0 

