 &CONTROL
                 calculation = 'bands' ,
                      outdir = './tmp/' ,
                  pseudo_dir = '/home/deleted/pseudo_psl' ,
                      prefix = 'MVG' ,
                    dipfield = .true. ,
                   verbosity = 'high',
                       nstep = 1000,
               forc_conv_thr = 4.0D-4,
               etot_conv_thr = 1.0D-5
 /
 &SYSTEM
                       ibrav = 4,
                           A = 9.88 ,
                           C = 15 ,
                         nat = 31,
                        ntyp = 1,
                     ecutwfc = 40.424239707 ,
                     ecutrho = 404.24239707 ,
                 occupations = 'tetrahedra' ,
                     degauss = 0.01 ,
				   input_dft = 'vdW-DF' ,
 /
 &ELECTRONS
            electron_maxstep = 50001,
                    conv_thr = 1.0D-6 ,
                 mixing_mode = 'local-TF' ,
                 mixing_beta = 0.5 ,
 /
ATOMIC_SPECIES
    C   12.01100  C.revpbe-n-kjpaw_psl.0.1.UPF 
ATOMIC_POSITIONS crystal 
C        0.000289526  -0.000289526   0.000000000
C        0.250047972   0.000095945   0.000000000
C        0.499420948  -0.000289526  -0.000000000
C        0.749818039  -0.000363921  -0.000000000
C        0.000363921   0.250181961   0.000000000
C        0.083637783   0.167236656  -0.000000000
C        0.253158210   0.251900111   0.000000000
C        0.332523292   0.165046585  -0.000000000
C        0.498741901   0.251900111  -0.000000000
C        0.583598873   0.167236656  -0.000000000
C        0.749818039   0.250181961   0.000000000
C        0.833333333   0.166666667   0.000000000
C        0.000289526   0.500579052   0.000000000
C        0.083637783   0.416401127   0.000000000
C        0.253158210   0.501258099   0.000000000
C        0.328743196   0.414371599  -0.000000000
C        0.585628401   0.414371599   0.000000000
C        0.748099889   0.501258099  -0.000000000
C        0.832763344   0.416401127   0.000000000
C       -0.000095945   0.749952028   0.000000000
C        0.083311901   0.666623804  -0.000000000
C        0.250047972   0.749952028   0.000000000
C        0.332523292   0.667476708   0.000000000
C        0.498741901   0.746841790   0.000000000
C        0.585628401   0.671256804  -0.000000000
C        0.748099889   0.746841790  -0.000000000
C        0.834953415   0.667476708  -0.000000000
C        0.083311901   0.916688099  -0.000000000
C        0.333376196   0.916688099  -0.000000000
C        0.583598873   0.916362217  -0.000000000
C        0.832763344   0.916362217  -0.000000000
K_POINTS crystal_b 
4
0.0000000000    0.0000000000    0.0000000000 17
0.0000000000    0.5000000000    0.0000000000 10
0.3333333333    0.3333333333    0.0000000000 20
0.0000000000    0.0000000000    0.0000000000 1

