 &CONTROL
                 calculation = 'nscf' ,
                      outdir = './tmp/' ,
                  pseudo_dir = '/home/deleted/pseudo_psl' ,
                      prefix = 'GBr_op' ,
                   verbosity = 'high' ,
               etot_conv_thr = 1.0D-5 ,
               forc_conv_thr = 4.0D-4 ,
                       nstep = 1000 ,
                    dipfield = .true. ,
 /
 &SYSTEM
                       ibrav = 4,
                           A = 9.88 ,
                           C = 15 ,
                         nat = 34,
                        ntyp = 4,
                     ecutwfc = 40.424239707 ,
                     ecutrho = 404.24239707 ,
                 occupations = 'tetrahedra' ,
                     degauss = 0.01 ,
				   input_dft = 'vdW-DF' ,
    nspin = 2 ,
    starting_magnetization(1) = 0.5,
    starting_magnetization(2) = 0.5,
    starting_magnetization(3) = 0.5,
 /
 &ELECTRONS
            electron_maxstep = 50001,
                    conv_thr = 1.0D-6 ,
                 mixing_mode = 'local-TF' ,
                 mixing_beta = 0.5 ,
 /
ATOMIC_SPECIES
    C   12.01100  C.revpbe-n-kjpaw_psl.0.1.UPF 
   Br   79.90350  Br.revpbe-n-kjpaw_psl.0.2.UPF 
    O   15.99940  O.revpbe-n-kjpaw_psl.0.1.UPF 
    H   1.008000  H.revpbe-kjpaw_psl.0.1.UPF
ATOMIC_POSITIONS (crystal)
C       -0.001055577  -0.000550527  -0.007004489
C        0.245146922  -0.010922500  -0.006750066
C        0.501751297  -0.000569003  -0.006726270
C        0.758135353   0.014982849  -0.006935565
C        0.008209117   0.256246731  -0.006925642
C        0.085418003   0.166788815  -0.006845149
C        0.252358340   0.243394673  -0.006922589
C        0.326180296   0.151161806  -0.006654895
C        0.492236684   0.243363344  -0.006803126
C        0.582581763   0.166761044  -0.006651250
C        0.749244679   0.256208433  -0.006834360
C        0.839159686   0.177079823  -0.006764020
C        0.001445276   0.501673902  -0.007468540
C        0.096800243   0.420984212  -0.007273489
C        0.274158664   0.498637594  -0.007517946
C        0.352530395   0.405400367  -0.007377315
C        0.554113172   0.405359831  -0.007410095
C        0.725716277   0.498586953  -0.007764415
C        0.825391357   0.420949240  -0.007352540
C       -0.012483475   0.745180566  -0.007638748
C        0.082866276   0.664512142  -0.007556149
C        0.258907970   0.745206104  -0.007352344
C        0.358555461   0.667529801  -0.007638533
C        0.530115150   0.760817671  -0.007708287
Br       0.598771233   0.647773431   0.221417673
C        0.732001467   0.760802986  -0.008030584
C        0.810227659   0.667476756  -0.008071364
C        0.076098459   0.909940118  -0.007109947
C        0.335076767   0.909950485  -0.006886756
C        0.592091946   0.922822180  -0.007097067
C        0.832011138   0.922814808  -0.007359047
O        0.634916315   0.752473825   0.526703689
O        0.662867219   0.662499400   0.483258485
H        0.598761002   0.625791217   0.316270051
K_POINTS automatic 
  20 20 1   0 0 0 

