 &CONTROL
                 calculation = 'scf' ,
                      outdir = './tmp/' ,
                  pseudo_dir = '/home/deleted/pseudo_psl' ,
                      prefix = 'GCl_op' ,
                   verbosity = 'high' ,
               etot_conv_thr = 1.0D-5 ,
               forc_conv_thr = 4.0D-4 ,
                       nstep = 1000 ,
                    dipfield = .true. ,
 /
 &SYSTEM
                       ibrav = 4,
                           A = 9.88 ,
                           C = 15 ,
                         nat = 34,
                        ntyp = 4,
                     ecutwfc = 40.424239707 ,
                     ecutrho = 404.24239707 ,
                 occupations = 'smearing' ,
                     degauss = 0.01 ,
				   input_dft = 'vdW-DF' ,
 /
 &ELECTRONS
            electron_maxstep = 50001,
                    conv_thr = 1.0D-6 ,
                 mixing_mode = 'local-TF' ,
                 mixing_beta = 0.5 ,
 /
ATOMIC_SPECIES
    C   12.01100  C.revpbe-n-kjpaw_psl.0.1.UPF 
   Cl   35.45200  Cl.revpbe-n-kjpaw_psl.0.3.0.UPF 
    O   15.99940  O.revpbe-n-kjpaw_psl.0.1.UPF 
    H   1.008000  H.revpbe-kjpaw_psl.0.1.UPF
ATOMIC_POSITIONS crystal 
C        0.005140599   0.005373947  -0.004035496
C        0.251265159  -0.000380523  -0.010807393
C        0.502892420   0.005265629  -0.001886935
C        0.756629308   0.010183218   0.014551273
C        0.006851682   0.256104456  -0.002423207
C        0.088684833   0.171779014  -0.006732958
C        0.255989204   0.252152181  -0.010960328
C        0.332771183   0.162617202  -0.012546350
C        0.498963966   0.251845012  -0.010421770
C        0.586074421   0.171632257  -0.005840663
C        0.752257641   0.256121619  -0.001559972
C        0.838372772   0.173769902   0.003396311
C        0.003510526   0.503872418  -0.003238811
C        0.093024538   0.421615989  -0.002769868
C        0.266513773   0.502707465  -0.000388302
C        0.347217892   0.414084931  -0.007055083
C        0.569576403   0.413963192  -0.007247972
C        0.739115740   0.502628815  -0.002096339
C        0.831654075   0.421519318  -0.002791557
C        0.000550271   0.751658855  -0.006183107
C        0.085942308   0.668638402  -0.007333550
C        0.254344330   0.751719686  -0.005002390
C        0.340857274   0.670939336   0.007537378
C        0.498381960   0.765530280   0.030029623
Cl       0.590350112   0.684128710   0.095638681
C        0.764291549   0.763424800   0.018903106
C        0.832419172   0.671300511   0.003192375
C        0.084062346   0.917703373  -0.007979890
C        0.336572081   0.917825518  -0.006480757
C        0.588175696   0.926585363   0.015886577
C        0.840541670   0.925869256   0.011049233
O        0.405033580   0.617679723   0.198314452
O        0.339233367   0.448724832   0.207950703
H        0.372502310   0.442775652   0.268507382
K_POINTS automatic 
  16 16 1   0 0 0 

