 &CONTROL
                 calculation = 'bands' ,
                      outdir = './tmp/' ,
                  pseudo_dir = '/home/deleted/pseudo_psl' ,
                      prefix = 'GI_ip' ,
                   verbosity = 'high' ,
               etot_conv_thr = 1.0D-5 ,
               forc_conv_thr = 4.0D-4 ,
                       nstep = 1000 ,
                    dipfield = .true. ,
 /
 &SYSTEM
                       ibrav = 4,
                           A = 9.88 ,
                           C = 15 ,
                         nat = 32,
                        ntyp = 3,
                     ecutwfc = 40.424239707 ,
                     ecutrho = 404.24239707 ,
                 occupations = 'tetrahedra' ,
                     degauss = 0.01 ,
				   input_dft = 'vdW-DF' ,
 /
 &ELECTRONS
            electron_maxstep = 50001,
                    conv_thr = 1.0D-6 ,
                 mixing_mode = 'local-TF' ,
                 mixing_beta = 0.5 ,
 /
ATOMIC_SPECIES
    C   12.01100  C.revpbe-n-kjpaw_psl.0.1.UPF 
    I  126.90400  I.revpbe-n-kjpaw_psl.0.2.UPF 
    O   15.99940  O.revpbe-n-kjpaw_psl.0.1.UPF 
ATOMIC_POSITIONS crystal 
C        0.002595320   0.003757205  -0.006586286
C        0.253154655   0.006309311  -0.013188889
C        0.501161885   0.003757205  -0.006586286
C        0.751086589   0.002173180   0.007231915
C        0.000712149   0.252199830  -0.008148196
C        0.085050771   0.170459996  -0.007344252
C        0.252855843   0.255818930  -0.005388964
C        0.335488438   0.170976877  -0.006866416
C        0.502963088   0.255818930  -0.005388964
C        0.585409224   0.170459996  -0.007344252
C        0.751487680   0.252199830  -0.008148196
C        0.833563004   0.167126008  -0.003494910
C        0.001469941   0.502939882  -0.017786948
C        0.083218911   0.418273342  -0.013574997
C        0.250638221   0.501816058  -0.009041538
C        0.330437319   0.419149189  -0.001940605
C        0.588711868   0.419149189  -0.001940605
C        0.751177837   0.501816058  -0.009041538
C        0.835054430   0.418273342  -0.013574997
C        0.004220159   0.754986031  -0.018576164
C        0.084907770   0.669815540  -0.022267777
C        0.250765872   0.754986031  -0.018576164
C        0.331840533   0.671194291  -0.006616791
C        0.489055050   0.756532506   0.013833778
I        0.562521407   0.625042815   0.100476297
C        0.767477456   0.756532506   0.013833778
C        0.839353757   0.671194291  -0.006616791
C        0.086010701   0.921340551  -0.013890291
C        0.335329851   0.921340551  -0.013890291
C        0.583182244   0.919507340   0.006450145
C        0.836325095   0.919507340   0.006450145
O        0.632772929   0.765545857   0.197545049
K_POINTS crystal_b 
4
0.0000000000    0.0000000000    0.0000000000 17
0.0000000000    0.5000000000    0.0000000000 10
0.3333333333    0.3333333333    0.0000000000 20
0.0000000000    0.0000000000    0.0000000000 1

