 &CONTROL
                 calculation = 'bands' ,
                      outdir = './tmp/' ,
                  pseudo_dir = '/home/deleted/pseudo_psl' ,
                      prefix = 'GF_op' ,
                   verbosity = 'high' ,
               forc_conv_thr = 4.0D-4 ,
                       nstep = 1000 ,
                    dipfield = .true. ,
 /
 &SYSTEM
                       ibrav = 4,
                           A = 9.88 ,
                           C = 15 ,
                         nat = 34,
                        ntyp = 4,
                     ecutwfc = 40.424239707 ,
                     ecutrho = 404.24239707 ,
                 occupations = 'tetrahedra' ,
                     degauss = 0.01 ,
				   input_dft = 'vdW-DF' ,
    nspin = 2 ,
    starting_magnetization(1) = 0.5,
    starting_magnetization(2) = 0.5,
    starting_magnetization(3) = 0.5,
 /
 &ELECTRONS
            electron_maxstep = 50001,
                    conv_thr = 1.0D-6 ,
                 mixing_mode = 'local-TF' ,
                 mixing_beta = 0.5 ,
    diagonalization = 'cg' ,
 /
ATOMIC_SPECIES
    C   12.01100  C.revpbe-n-kjpaw_psl.0.1.UPF 
    F   18.99800  F.revpbe-n-kjpaw_psl.0.1.UPF 
    O   15.99940  O.revpbe-n-kjpaw_psl.0.1.UPF 
    H   1.008000  H.revpbe-kjpaw_psl.0.1.UPF
ATOMIC_POSITIONS (crystal)
C       -0.011305486   0.000140080  -0.003082495
C        0.235592152  -0.004953053   0.004554206
C        0.487461238   0.000918964   0.009093184
C        0.736901221   0.002070943  -0.001911924
C       -0.010400752   0.251185381  -0.002813471
C        0.071888434   0.167055552   0.000624421
C        0.239894774   0.248697540   0.002363991
C        0.317297633   0.159216024   0.003265757
C        0.482884492   0.247927717   0.001064326
C        0.569417255   0.167171897   0.001480507
C        0.735545505   0.251404258  -0.001048472
C        0.820992309   0.168653014  -0.002995256
C       -0.013563885   0.499095524  -0.001765773
C        0.075513738   0.417133206  -0.000078968
C        0.250313847   0.500300774   0.007657429
C        0.331784687   0.410720439   0.003363803
C        0.553549636   0.410730791  -0.003383366
C        0.722595329   0.498712120  -0.009754344
C        0.814836223   0.417301674  -0.004298134
C       -0.014943518   0.748056998  -0.004260366
C        0.069427806   0.664810847   0.001054825
C        0.236691121   0.746122969   0.009802390
C        0.321467070   0.665344610   0.018809935
C        0.485965783   0.757939228   0.047823722
F        0.609680101   0.691556699  -0.076827640
C        0.752342502   0.761168425  -0.035517577
C        0.817925823   0.667509032  -0.016980476
C        0.068500811   0.913481363  -0.001338222
C        0.319879775   0.913994973   0.010300398
C        0.573465244   0.921801139   0.014667200
C        0.823079587   0.920026193  -0.013951994
O        0.544206251   0.704801413   0.100809199
O        0.840282222   0.689853704   0.171553524
H        0.744528506   0.696715876   0.174850916
K_POINTS automatic 
  20 20 1   0 0 0 

