 &CONTROL
                 calculation = 'scf' ,
                      outdir = './tmp/' ,
                  pseudo_dir = '/home/deleted/pseudo_psl' ,
                      prefix = 'GCl_ip' ,
                   verbosity = 'high' ,
               etot_conv_thr = 1.0D-5 ,
               forc_conv_thr = 4.0D-4 ,
                       nstep = 1000 ,
                    dipfield = .true. ,
 /
 &SYSTEM
                       ibrav = 4,
                           A = 9.88 ,
                           C = 15 ,
                         nat = 34,
                        ntyp = 4,
                     ecutwfc = 40.424239707 ,
                     ecutrho = 404.24239707 ,
                 occupations = 'smearing' ,
                     degauss = 0.01 ,
				   input_dft = 'vdW-DF' ,
 /
 &ELECTRONS
            electron_maxstep = 50001,
                    conv_thr = 1.0D-6 ,
                 mixing_mode = 'local-TF' ,
                 mixing_beta = 0.5 ,
 /
ATOMIC_SPECIES
    C   12.01100  C.revpbe-n-kjpaw_psl.0.1.UPF 
   Cl   35.45200  Cl.revpbe-n-kjpaw_psl.0.3.0.UPF 
    O   15.99940  O.revpbe-n-kjpaw_psl.0.1.UPF 
    H   1.008000  H.revpbe-kjpaw_psl.0.1.UPF
ATOMIC_POSITIONS crystal 
C       -0.001723534  -0.006820100  -0.006287964
C        0.243852359  -0.013149840  -0.014616312
C        0.495679765  -0.006917125  -0.006712721
C        0.749368004  -0.001947135   0.011270523
C       -0.000638156   0.243480479  -0.005055292
C        0.081498696   0.159496732  -0.009686943
C        0.248746898   0.239380922  -0.013876384
C        0.325401903   0.149988841  -0.016270863
C        0.491488399   0.239336461  -0.013994088
C        0.578805573   0.159435953  -0.009899421
C        0.744873979   0.243441886  -0.005164130
C        0.831155692   0.161476850  -0.000101001
C       -0.004121810   0.490980182  -0.005510963
C        0.085357120   0.409024426  -0.005126995
C        0.258942371   0.489819668  -0.003059667
C        0.340431973   0.401432868  -0.009349185
C        0.561809923   0.401374825  -0.009367693
C        0.731587773   0.489683521  -0.002894113
C        0.824378861   0.408921337  -0.005071173
C       -0.006392816   0.739025902  -0.008167669
C        0.078368939   0.655954223  -0.009963094
C        0.246225831   0.739012170  -0.008368428
C        0.332819518   0.658145797   0.003556818
C        0.491006931   0.754168950   0.022522234
Cl       0.588020909   0.676029425   0.085847596
C        0.763735506   0.753901686   0.022809711
C        0.826041192   0.658048968   0.003813663
C        0.076913746   0.905215171  -0.010483477
C        0.329148488   0.905203318  -0.010743890
C        0.581444226   0.915331833   0.010704481
C        0.834519613   0.915297084   0.010837116
O        0.760256365   0.922570986   0.229950471
O        0.619655568   0.926534858   0.211245160
H        0.790142201   0.972431705   0.288613129
K_POINTS automatic 
  16 16 1   0 0 0 

