 &CONTROL
                 calculation = 'relax' ,
                      outdir = './tmp/' ,
                  pseudo_dir = '/home/deleted/pseudo_psl' ,
                      prefix = 'GCl_ip' ,
                   verbosity = 'high' ,
               etot_conv_thr = 1.0D-5 ,
               forc_conv_thr = 4.0D-4 ,
                       nstep = 1000 ,
                    dipfield = .true. ,
 /
 &SYSTEM
                       ibrav = 4,
                           A = 9.88 ,
                           C = 15 ,
                         nat = 34,
                        ntyp = 4,
                     ecutwfc = 40.424239707 ,
                     ecutrho = 404.24239707 ,
                 occupations = 'smearing' ,
                     degauss = 0.01 ,
				   input_dft = 'vdW-DF' ,
 /
 &ELECTRONS
            electron_maxstep = 50001,
                    conv_thr = 1.0D-6 ,
                 mixing_mode = 'local-TF' ,
                 mixing_beta = 0.5 ,
 /
 &IONS
                ion_dynamics = 'bfgs' ,
 /
ATOMIC_SPECIES
    C   12.01100  C.revpbe-n-kjpaw_psl.0.1.UPF 
   Cl   35.45200  Cl.revpbe-n-kjpaw_psl.0.3.0.UPF 
    O   15.99940  O.revpbe-n-kjpaw_psl.0.1.UPF 
    H   1.008000  H.revpbe-kjpaw_psl.0.1.UPF
ATOMIC_POSITIONS crystal 
C       -0.002560864  -0.007764532  -0.007326189
C        0.242960716  -0.014078568  -0.015456150
C        0.494796333  -0.007764532  -0.007326189
C        0.748515435  -0.002969129   0.010297611
C       -0.001565103   0.242512332  -0.006093476
C        0.080619819   0.158562726  -0.010777532
C        0.247901081   0.238497465  -0.014805042
C        0.324577547   0.149155096  -0.017093907
C        0.490596384   0.238497465  -0.014805042
C        0.577942906   0.158562726  -0.010777532
C        0.744077435   0.242512332  -0.006093476
C        0.830311058   0.160622116  -0.001059553
C       -0.005031028   0.489937943  -0.006370737
C        0.084398059   0.408043243  -0.006059219
C        0.257970738   0.488823520  -0.003831065
C        0.339626188   0.400598813  -0.010177969
C        0.560972624   0.400598813  -0.010177969
C        0.730852782   0.488823520  -0.003831065
C        0.823645183   0.408043243  -0.006059219
C       -0.007191826   0.738048456  -0.008885284
C        0.077509697   0.655019397  -0.010639455
C        0.245240282   0.738048456  -0.008885284
C        0.331686782   0.656982046   0.003159395
C        0.489701327   0.753176131   0.022520474
Cl       0.587349313   0.674698628   0.085638399
C        0.763474803   0.753176131   0.022520474
C        0.825295263   0.656982046   0.003159395
C        0.076079216   0.904295816  -0.011359984
C        0.328216600   0.904295816  -0.011359984
C        0.580681611   0.914427226   0.010195429
C        0.833745614   0.914427226   0.010195429
O        0.797064990   0.964270687   0.220782358
O        0.667205698   0.964270687   0.220782358
H        0.732135344   0.921979486   0.311399433
K_POINTS automatic 
  4 4 1   0 0 0 

