 &CONTROL
                 calculation = 'nscf' ,
                      outdir = './tmp/' ,
                  pseudo_dir = '/home/deleted/pseudo_psl' ,
                      prefix = 'GI_op' ,
                   verbosity = 'high' ,
               etot_conv_thr = 1.0D-5 ,
               forc_conv_thr = 4.0D-4 ,
                       nstep = 1000 ,
                    dipfield = .true. ,
 /
 &SYSTEM
                       ibrav = 4,
                           A = 9.88 ,
                           C = 15 ,
                         nat = 34,
                        ntyp = 4,
                     ecutwfc = 40.424239707 ,
                     ecutrho = 404.24239707 ,
                 occupations = 'tetrahedra' ,
                     degauss = 0.01 ,
				   input_dft = 'vdW-DF' ,
    nspin = 2 ,
    starting_magnetization(1) = 0.5,
    starting_magnetization(2) = 0.5,
    starting_magnetization(3) = 0.5,
 /
 &ELECTRONS
            electron_maxstep = 50001,
                    conv_thr = 1.0D-6 ,
                 mixing_mode = 'local-TF' ,
                 mixing_beta = 0.5 ,
 /
ATOMIC_SPECIES
    C   12.01100  C.revpbe-n-kjpaw_psl.0.1.UPF 
    I  126.90400  I.revpbe-n-kjpaw_psl.0.2.UPF 
    O   15.99940  O.revpbe-n-kjpaw_psl.0.1.UPF 
    H   1.008000  H.revpbe-kjpaw_psl.0.1.UPF
ATOMIC_POSITIONS (crystal)
C       -0.001974230  -0.006382796  -0.002077014
C        0.244234297  -0.016723911  -0.002298046
C        0.500799524  -0.006286591  -0.003789478
C        0.756780164   0.008402619  -0.003479499
C        0.006675692   0.250038039  -0.002862670
C        0.084278544   0.160738461  -0.002036745
C        0.251304315   0.237609204  -0.002060309
C        0.325549141   0.145926331  -0.001890004
C        0.491495679   0.237628176  -0.002668609
C        0.581632695   0.160798556  -0.003347744
C        0.748492810   0.250088988  -0.003690163
C        0.838093621   0.171101100  -0.003340649
C        0.000279360   0.495334358  -0.004162252
C        0.095215397   0.414934206  -0.003748112
C        0.272880310   0.492919047  -0.004286072
C        0.351228480   0.399925074  -0.003200128
C        0.553904021   0.399929624  -0.003506635
C        0.725249527   0.492927260  -0.004607317
C        0.824919522   0.414923827  -0.004162788
C       -0.012913798   0.739390300  -0.003862203
C        0.082129676   0.659088555  -0.004204890
C        0.257509487   0.739468916  -0.004177433
C        0.356983322   0.661408146  -0.004753528
C        0.528370973   0.754513740  -0.004256623
I        0.560172637   0.608125982   0.218453892
C        0.731293324   0.754456373  -0.003561398
C        0.809592258   0.661395039  -0.004552352
C        0.075560547   0.904292064  -0.002515727
C        0.334004014   0.904393633  -0.003382202
C        0.590902694   0.916803622  -0.004206058
C        0.831018732   0.916799512  -0.002830140
O        0.521576127   0.935837531   0.222936566
O        0.661152743   1.059334568   0.200756906
H        0.539131123   0.842662963   0.226526324
K_POINTS automatic 
  20 20 1   0 0 0 

