 &CONTROL
                 calculation = 'scf' ,
                      outdir = './tmp/' ,
                  pseudo_dir = '/home/deleted/pseudo_psl' ,
                      prefix = 'G_B3' ,
                    dipfield = .true. ,
                   verbosity = 'high',
                       nstep = 1000,
               forc_conv_thr = 4.0D-4,
               etot_conv_thr = 1.0D-5
 /
 &SYSTEM
                       ibrav = 4,
                           A = 9.88 ,
                           C = 15 ,
                         nat = 30,
                        ntyp = 1,
                     ecutwfc = 40.424239707 ,
                     ecutrho = 404.24239707 ,
                 occupations = 'smearing' ,
                     degauss = 0.01 ,
				   input_dft = 'vdW-DF' ,
 /
 &ELECTRONS
            electron_maxstep = 50001,
                    conv_thr = 1.0D-6 ,
                 mixing_mode = 'local-TF' ,
                 mixing_beta = 0.5 ,
 /
ATOMIC_SPECIES
    C   12.01100  C.revpbe-n-kjpaw_psl.0.1.UPF
ATOMIC_POSITIONS crystal 
C        0.003949483   0.002723103   0.000000000
C        0.255348287   0.002819302   0.000000000
C        0.497126138  -0.002362700   0.000000000
C        0.749901183  -0.000049408   0.000000000
C        0.003949483   0.251226380   0.000000000
C        0.093628553   0.171814277   0.000000000
C        0.272975740   0.261487870   0.000000000
C        0.347264799   0.167143957   0.000000000
C        0.573456184   0.159056628   0.000000000
C        0.742348160   0.246883990   0.000000000
C        0.832587297   0.166487770   0.000000000
C       -0.003363109   0.497181338   0.000000000
C        0.085067408   0.416481687   0.000000000
C        0.255348287   0.502528985   0.000000000
C        0.347264799   0.430120843   0.000000000
C        0.579779036   0.414889518   0.000000000
C        0.742276577   0.496138288   0.000000000
C        0.829581779   0.413207872   0.000000000
C       -0.003363109   0.749455553   0.000000000
C        0.078471687   0.664235844   0.000000000
C        0.245678978   0.747839489   0.000000000
C        0.330291121   0.667925377   0.000000000
C        0.497126138   0.749488838   0.000000000
C        0.573456184   0.664399557   0.000000000
C        0.742348160   0.745464170   0.000000000
C        0.829581779   0.666373908   0.000000000
C        0.085067408   0.918585722   0.000000000
C        0.330291121   0.912365745   0.000000000
C        0.583306480   0.916653240   0.000000000
C        0.832587297   0.916099528   0.000000000
K_POINTS automatic 
  16 16 1   0 0 0 

