&INPUTPP
                 outdir= './tmp/'
                 prefix = 'G_B3' ,
                 filplot = 'G_B3-bader'
                 plot_num = 0,
                 spin_component = 0,    
 /
&PLOT
                 nfile = 1 
                 filepp(1) = 'G_B3-bader'
                 weight(1) = 1.0 ,
                 fileout = 'G_B3-bader.cube',
                 iflag  = 3,
                 output_format = 6
 /
