 &CONTROL
                 calculation = 'bands' ,
                      outdir = './tmp/' ,
                  pseudo_dir = '/home/deleted/pseudo_psl' ,
                      prefix = 'GBr_op' ,
                   verbosity = 'high' ,
               etot_conv_thr = 1.0D-5 ,
               forc_conv_thr = 4.0D-4 ,
                       nstep = 1000 ,
                    dipfield = .true. ,
 /
 &SYSTEM
                       ibrav = 4,
                           A = 9.88 ,
                           C = 15 ,
                         nat = 33,
                        ntyp = 3,
                     ecutwfc = 40.424239707 ,
                     ecutrho = 404.24239707 ,
                 occupations = 'tetrahedra' ,
                     degauss = 0.01 ,
				   input_dft = 'vdW-DF' ,
 /
 &ELECTRONS
            electron_maxstep = 50001,
                    conv_thr = 1.0D-6 ,
                 mixing_mode = 'local-TF' ,
                 mixing_beta = 0.5 ,
 /
ATOMIC_SPECIES
    C   12.01100  C.revpbe-n-kjpaw_psl.0.1.UPF 
   Br   79.90350  Br.revpbe-n-kjpaw_psl.0.2.UPF 
    O   15.99940  O.revpbe-n-kjpaw_psl.0.1.UPF 
ATOMIC_POSITIONS crystal 
C       -0.002103575  -0.001449500  -0.002350659
C        0.244160071  -0.011679858  -0.002031017
C        0.500654075  -0.001449500  -0.002350659
C        0.756829442   0.013658883  -0.002773127
C        0.006842751   0.255111137  -0.002070561
C        0.084215758   0.165738791  -0.002165657
C        0.251206782   0.242553996  -0.002197629
C        0.325306787   0.150613577  -0.002067727
C        0.491347213   0.242553996  -0.002197629
C        0.581523032   0.165738791  -0.002165657
C        0.748268386   0.255111137  -0.002070561
C        0.837998584   0.175997170  -0.002215636
C        0.000245500   0.500491001  -0.002176460
C        0.095277404   0.419894596  -0.002147135
C        0.272707097   0.497759501  -0.002584000
C        0.350885949   0.404615261  -0.002477345
C        0.553729311   0.404615261  -0.002477345
C        0.725052404   0.497759501  -0.002584000
C        0.824617192   0.419894596  -0.002147135
C       -0.013168439   0.744333866  -0.002547048
C        0.081865875   0.663731751  -0.002436120
C        0.257502306   0.744333866  -0.002547048
C        0.356906056   0.666475163  -0.002921975
C        0.528311712   0.759713654  -0.002981987
Br       0.595989480   0.691978962   0.208302504
C        0.731401941   0.759713654  -0.002981987
C        0.809569107   0.666475163  -0.002921975
C        0.075268812   0.909162440  -0.002237004
C        0.333893627   0.909162440  -0.002237004
C        0.590888361   0.921853203  -0.002832023
C        0.830964841   0.921853203  -0.002832023
O        0.628542057   0.757084113   0.406547636
O        0.571246108   0.642492217   0.354509959
K_POINTS crystal_b 
4
0.0000000000    0.0000000000    0.0000000000 17
0.0000000000    0.5000000000    0.0000000000 10
0.3333333333    0.3333333333    0.0000000000 20
0.0000000000    0.0000000000    0.0000000000 1

