 &CONTROL
                 calculation = 'relax' ,
                      outdir = './tmp/' ,
                  pseudo_dir = '/home/deleted/pseudo_psl' ,
                      prefix = 'GI_op' ,
                   verbosity = 'high' ,
               etot_conv_thr = 1.0D-5 ,
               forc_conv_thr = 4.0D-4 ,
                       nstep = 1000 ,
                    dipfield = .true. ,
 /
 &SYSTEM
                       ibrav = 4,
                           A = 9.88 ,
                           C = 15 ,
                         nat = 34,
                        ntyp = 4,
                     ecutwfc = 40.424239707 ,
                     ecutrho = 404.24239707 ,
                 occupations = 'smearing' ,
                     degauss = 0.01 ,
				   input_dft = 'vdW-DF' ,
 /
 &ELECTRONS
            electron_maxstep = 50001,
                    conv_thr = 1.0D-6 ,
                 mixing_mode = 'local-TF' ,
                 mixing_beta = 0.5 ,
 /
 &IONS
                ion_dynamics = 'bfgs' ,
 /
ATOMIC_SPECIES
    C   12.01100  C.revpbe-n-kjpaw_psl.0.1.UPF 
    I  126.90400  I.revpbe-n-kjpaw_psl.0.2.UPF 
    O   15.99940  O.revpbe-n-kjpaw_psl.0.1.UPF 
    H   1.008000  H.revpbe-kjpaw_psl.0.1.UPF
ATOMIC_POSITIONS crystal 
C       -0.007913446  -0.005665592  -0.006008558
C        0.238325289  -0.016013697  -0.006009178
C        0.494889949  -0.005615095  -0.007080048
C        0.751002595   0.009598926  -0.007042753
C        0.001051000   0.250973928  -0.005607155
C        0.078462429   0.161580458  -0.005530332
C        0.245409549   0.238305916  -0.005509636
C        0.319486615   0.146299574  -0.005694108
C        0.485465291   0.238238557  -0.005963419
C        0.575712323   0.161559638  -0.006361360
C        0.742493516   0.250990406  -0.006175810
C        0.832261848   0.172001242  -0.006275862
C       -0.005559627   0.496294687  -0.005961740
C        0.089592068   0.415768013  -0.005674174
C        0.267229854   0.493606406  -0.006014025
C        0.345380460   0.400398967  -0.005852441
C        0.547658050   0.400435163  -0.006100649
C        0.718983853   0.493617292  -0.006385364
C        0.818760317   0.415799790  -0.006029007
C       -0.019090423   0.740138723  -0.006495261
C        0.076110672   0.659602700  -0.006342671
C        0.251780831   0.740097008  -0.006585956
C        0.351481477   0.662383159  -0.006747491
C        0.522869697   0.755689103  -0.007437043
I        0.584607053   0.618317970   0.242896290
C        0.725468840   0.755661332  -0.007071674
C        0.803480406   0.662405624  -0.006801550
C        0.069402432   0.904913054  -0.006121089
C        0.328147819   0.904962583  -0.006603910
C        0.585177496   0.917793482  -0.007985732
C        0.825161093   0.917647010  -0.006747264
O        0.588451290   0.849672917   0.198374323
O        0.717422817   0.978303902   0.198106903
H        0.671552454   0.895123264   0.101816689
K_POINTS automatic 
  4 4 1   0 0 0 

