 &CONTROL
                 calculation = 'bands' ,
                      outdir = './tmp/' ,
                  pseudo_dir = '/home/deleted/pseudo_psl' ,
                      prefix = 'GI_ip' ,
                   verbosity = 'high' ,
               etot_conv_thr = 1.0D-5 ,
               forc_conv_thr = 4.0D-4 ,
                       nstep = 1000 ,
                    dipfield = .true. ,
 /
 &SYSTEM
                       ibrav = 4,
                           A = 9.88 ,
                           C = 15 ,
                         nat = 33,
                        ntyp = 3,
                     ecutwfc = 40.424239707 ,
                     ecutrho = 404.24239707 ,
                 occupations = 'tetrahedra' ,
                     degauss = 0.01 ,
				   input_dft = 'vdW-DF' ,
    nspin = 2 ,
    starting_magnetization(1) = 0.5,
    starting_magnetization(2) = 0.5,
    starting_magnetization(3) = 0.5,
 /
 &ELECTRONS
            electron_maxstep = 50001,
                    conv_thr = 1.0D-6 ,
                 mixing_mode = 'local-TF' ,
                 mixing_beta = 0.500000000 ,
 /
ATOMIC_SPECIES
    C   12.01100  C.revpbe-n-kjpaw_psl.0.1.UPF 
    I  126.90400  I.revpbe-n-kjpaw_psl.0.2.UPF 
    O   15.99940  O.revpbe-n-kjpaw_psl.0.1.UPF 
ATOMIC_POSITIONS (crystal)
C        0.002796652   0.003783183   0.003126357
C        0.255408039   0.010816078   0.006609196
C        0.500986531   0.003783183   0.003126357
C        0.749389293  -0.001221414  -0.006338515
C       -0.001209349   0.250578024   0.010479128
C        0.084603860   0.170937758   0.002954375
C        0.251380106   0.257296876  -0.008910787
C        0.337982743   0.175965488  -0.007292413
C        0.505916771   0.257296876  -0.008910787
C        0.586333897   0.170937758   0.002954375
C        0.751787372   0.250578024   0.010479128
C        0.831969424   0.163938848   0.007180723
C        0.001652416   0.503304832   0.026266222
C        0.079548085   0.417347745   0.018071515
C        0.241035326   0.502062416   0.001483276
C        0.315872451   0.420235052  -0.018998463
C        0.604362600   0.420235052  -0.018998463
C        0.761027090   0.502062416   0.001483276
C        0.837799659   0.417347745   0.018071515
C        0.007818523   0.757296026   0.018018619
C        0.085653037   0.671306073   0.026085502
C        0.249477503   0.757296026   0.018018619
C        0.326344806   0.672459530   0.001985176
C        0.483383340   0.754227421  -0.017405957
I        0.543786274   0.587572549  -0.064454059
C        0.770844081   0.754227421  -0.017405957
C        0.846114724   0.672459530   0.001985176
C        0.088594234   0.924093175   0.010247758
C        0.335498941   0.924093175   0.010247758
C        0.581505576   0.917365286  -0.007901141
C        0.835859709   0.917365286  -0.007901141
O        0.553766260   0.479809617   0.192821817
O        0.426043357   0.479809617   0.192821817
K_POINTS automatic 
  20 20 1   0 0 0 

