 &CONTROL
                 calculation = 'relax' ,
                      outdir = './tmp/' ,
                  pseudo_dir = '/home/deleted/pseudo_psl' ,
                      prefix = 'GCl_op' ,
                   verbosity = 'high' ,
               etot_conv_thr = 1.0D-5 ,
               forc_conv_thr = 4.0D-4 ,
                       nstep = 1000 ,
                    dipfield = .true. ,
 /
 &SYSTEM
                       ibrav = 4,
                           A = 9.88 ,
                           C = 15 ,
                         nat = 33,
                        ntyp = 3,
                     ecutwfc = 40.424239707 ,
                     ecutrho = 404.24239707 ,
                 occupations = 'smearing' ,
                     degauss = 0.01 ,
				   input_dft = 'vdW-DF' ,
 /
 &ELECTRONS
            electron_maxstep = 50001,
                    conv_thr = 1.0D-6 ,
                 mixing_mode = 'local-TF' ,
                 mixing_beta = 0.5 ,
 /
 &IONS
                ion_dynamics = 'bfgs' ,
 /
ATOMIC_SPECIES
    C   12.01100  C.revpbe-n-kjpaw_psl.0.1.UPF 
   Cl   35.45200  Cl.revpbe-n-kjpaw_psl.0.3.0.UPF 
    O   15.99940  O.revpbe-n-kjpaw_psl.0.1.UPF 
ATOMIC_POSITIONS crystal 
C        0.021682349   0.001215696  -0.000931683
C        0.267685967  -0.008245871  -0.004811345
C        0.523846857   0.001646913  -0.008140508
C        0.780459712   0.013634794  -0.003357142
C        0.029984649   0.256683400  -0.007891303
C        0.108367323   0.168598222  -0.005892601
C        0.275415081   0.246097129  -0.007232545
C        0.349688449   0.154880131  -0.006037489
C        0.516077803   0.246861717  -0.008534743
C        0.605492357   0.168837132  -0.008589222
C        0.772776335   0.256687011  -0.010458131
C        0.862055240   0.177664630  -0.007873059
C        0.024193232   0.502254982  -0.011610687
C        0.118557295   0.421976641  -0.010374666
C        0.294641119   0.500594362  -0.010564992
C        0.374734787   0.408808461  -0.009823839
C        0.578986054   0.409049803  -0.009859183
C        0.752451068   0.501574477  -0.010204432
C        0.850311634   0.421632793  -0.011974563
C        0.012202138   0.745831511  -0.006558377
C        0.105741310   0.666373970  -0.010475402
C        0.279088452   0.747494734  -0.009217695
C        0.376081139   0.669408659  -0.009862158
C        0.543884721   0.761916537  -0.010365176
Cl       0.705494706   0.718879695   0.141799015
C        0.756678642   0.758010883   0.019657244
C        0.840195197   0.666857537  -0.004329560
C        0.100517072   0.912172196  -0.002125547
C        0.357135623   0.912425737  -0.007630280
C        0.612892069   0.923509372  -0.007705957
C        0.856719766   0.926699832   0.004664603
O        0.157250729   0.691141638   0.197011979
O        0.107937698   0.787294275   0.196149341
K_POINTS automatic 
  4 4 1   0 0 0 

