 &CONTROL
                 calculation = 'scf' ,
                      outdir = './tmp/' ,
                  pseudo_dir = '/home/deleted/pseudo_psl' ,
                      prefix = 'GCl_op' ,
                   verbosity = 'high' ,
               etot_conv_thr = 1.0D-5 ,
               forc_conv_thr = 4.0D-4 ,
                       nstep = 1000 ,
                    dipfield = .true. ,
 /
 &SYSTEM
                       ibrav = 4,
                           A = 9.88 ,
                           C = 15 ,
                         nat = 34,
                        ntyp = 4,
                     ecutwfc = 40.424239707 ,
                     ecutrho = 404.24239707 ,
                 occupations = 'smearing' ,
                     degauss = 0.01 ,
				   input_dft = 'vdW-DF' ,
    nspin = 2 ,
    starting_magnetization(1) = 0.5,
    starting_magnetization(2) = 0.5,
    starting_magnetization(3) = 0.5,
 /
 &ELECTRONS
            electron_maxstep = 50001,
                    conv_thr = 1.0D-6 ,
                 mixing_mode = 'local-TF' ,
                 mixing_beta = 0.5 ,
 /
ATOMIC_SPECIES
    C   12.01100  C.revpbe-n-kjpaw_psl.0.1.UPF 
   Cl   35.45200  Cl.revpbe-n-kjpaw_psl.0.3.0.UPF 
    O   15.99940  O.revpbe-n-kjpaw_psl.0.1.UPF 
    H   1.008000  H.revpbe-kjpaw_psl.0.1.UPF
ATOMIC_POSITIONS (crystal)
C        0.007344682  -0.006867653  -0.006099142
C        0.254191220  -0.011269187  -0.015689999
C        0.505976480  -0.005588676  -0.015350378
C        0.759315868  -0.002458997   0.000813063
C        0.009787099   0.244932194  -0.007606420
C        0.090982334   0.160011923  -0.010787959
C        0.258700911   0.240824627  -0.013755459
C        0.335805542   0.151835800  -0.015147188
C        0.502125090   0.241765175  -0.013354957
C        0.588763650   0.160818556  -0.012143999
C        0.755015683   0.244814643  -0.009417932
C        0.841174338   0.162062140  -0.005370293
C        0.006279285   0.492811718  -0.010582732
C        0.095941312   0.410368799  -0.011084550
C        0.269478609   0.491413778  -0.015234378
C        0.350654418   0.403334394  -0.013459152
C        0.572763307   0.404036793  -0.008821255
C        0.742388376   0.492304798  -0.002026192
C        0.834463981   0.410520970  -0.007777446
C        0.002651298   0.740812782  -0.009194615
C        0.087972349   0.657679705  -0.014735219
C        0.256249034   0.740727163  -0.018778504
C        0.345011535   0.659961962  -0.019955444
C        0.505402327   0.753367634  -0.022043975
Cl       0.631480928   0.680229890   0.121432315
C        0.771498793   0.753516623   0.034161171
C        0.836259394   0.660612615   0.007073369
C        0.087350488   0.906831263  -0.010282756
C        0.339415909   0.906727630  -0.018417543
C        0.592478459   0.913339273  -0.011870426
C        0.842793125   0.913633766   0.010662464
O        0.344647326   0.831875623   0.199312621
O        0.461091309   0.965159209   0.201516794
H        0.487463924   0.833792497   0.382636888
K_POINTS automatic 
  16 16 1   0 0 0 

