 &CONTROL
                 calculation = 'nscf' ,
                      outdir = './tmp/' ,
                  pseudo_dir = '/home/deleted/pseudo_psl' ,
                      prefix = 'GI_ip' ,
                   verbosity = 'high' ,
               etot_conv_thr = 1.0D-5 ,
               forc_conv_thr = 4.0D-4 ,
                       nstep = 1000 ,
                    dipfield = .true. ,
 /
 &SYSTEM
                       ibrav = 4,
                           A = 9.88 ,
                           C = 15 ,
                         nat = 33,
                        ntyp = 3,
                     ecutwfc = 40.424239707 ,
                     ecutrho = 404.24239707 ,
                 occupations = 'tetrahedra' ,
                     degauss = 0.01 ,
				   input_dft = 'vdW-DF' ,
 /
 &ELECTRONS
            electron_maxstep = 50001,
                    conv_thr = 1.0D-6 ,
                 mixing_mode = 'local-TF' ,
                 mixing_beta = 0.5 ,
 /
ATOMIC_SPECIES
    C   12.01100  C.revpbe-n-kjpaw_psl.0.1.UPF 
    I  126.90400  I.revpbe-n-kjpaw_psl.0.2.UPF 
    O   15.99940  O.revpbe-n-kjpaw_psl.0.1.UPF 
ATOMIC_POSITIONS crystal 
C        0.002126482   0.002469148   0.004005545
C        0.254791823   0.009583647   0.007617080
C        0.500342666   0.002469148   0.004005545
C        0.748647113  -0.002705773  -0.005441205
C       -0.001919423   0.249237647   0.010985838
C        0.083898019   0.169589336   0.004007318
C        0.250845308   0.256129105  -0.006889473
C        0.337381825   0.174763651  -0.005442144
C        0.505283797   0.256129105  -0.006889473
C        0.585691316   0.169589336   0.004007318
C        0.751157070   0.249237647   0.010985838
C        0.831238568   0.162477137   0.007608301
C        0.001028044   0.502056088   0.026105914
C        0.078713957   0.415964323   0.018357764
C        0.240448341   0.500837006   0.003049405
C        0.315924353   0.419284094  -0.015586211
C        0.603359740   0.419284094  -0.015586211
C        0.760388665   0.500837006   0.003049405
C        0.837250365   0.415964323   0.018357764
C        0.007315412   0.756105952   0.018358243
C        0.085007068   0.670014136   0.026110030
C        0.248790540   0.756105952   0.018358243
C        0.325648542   0.671223720   0.003054599
C        0.482660316   0.752763069  -0.015598421
I        0.543007608   0.586015217  -0.061702818
C        0.770102753   0.752763069  -0.015598421
C        0.845575176   0.671223720   0.003054599
C        0.087946515   0.922824913   0.010990179
C        0.334878399   0.922824913   0.010990179
C        0.580746816   0.915922429  -0.006890698
C        0.835175612   0.915922429  -0.006890698
O        0.608006325   0.585894145   0.174728333
O        0.477887819   0.585894145   0.174728333
K_POINTS automatic 
  20 20 1   0 0 0 

