 &CONTROL
                 calculation = 'nscf' ,
                      outdir = './tmp/' ,
                  pseudo_dir = '/home/deleted/pseudo_psl' ,
                      prefix = 'GI_ip' ,
                   verbosity = 'high' ,
               etot_conv_thr = 1.0D-5 ,
               forc_conv_thr = 4.0D-4 ,
                       nstep = 1000 ,
                    dipfield = .true. ,
 /
 &SYSTEM
                       ibrav = 4,
                           A = 9.88 ,
                           C = 15 ,
                         nat = 34,
                        ntyp = 4,
                     ecutwfc = 40.424239707 ,
                     ecutrho = 404.24239707 ,
                 occupations = 'tetrahedra' ,
                     degauss = 0.01 ,
				   input_dft = 'vdW-DF' ,
 /
 &ELECTRONS
            electron_maxstep = 50001,
                    conv_thr = 1.0D-6 ,
                 mixing_mode = 'local-TF' ,
                 mixing_beta = 0.5 ,
 /
ATOMIC_SPECIES
    C   12.01100  C.revpbe-n-kjpaw_psl.0.1.UPF 
    I  126.90400  I.revpbe-n-kjpaw_psl.0.2.UPF 
    O   15.99940  O.revpbe-n-kjpaw_psl.0.1.UPF 
    H   1.008000  H.revpbe-kjpaw_psl.0.1.UPF
ATOMIC_POSITIONS crystal 
C        0.005876062   0.008353437   0.005330149
C        0.258643963   0.015811796   0.009106927
C        0.503952466   0.008452578   0.005713186
C        0.752042045   0.002465872  -0.003336653
C        0.001434707   0.254611750   0.012852992
C        0.087276461   0.175013719   0.005924278
C        0.253824253   0.261766887  -0.005002653
C        0.341228992   0.181009435  -0.003946285
C        0.509417193   0.261800442  -0.006429145
C        0.589228886   0.175115396   0.004915915
C        0.754713967   0.254637017   0.011789646
C        0.834627934   0.167692117   0.009462370
C        0.004511188   0.507628752   0.025928657
C        0.081972876   0.421298456   0.019506103
C        0.243711003   0.506420341   0.004735451
C        0.318873446   0.424417415  -0.013424868
C        0.607258762   0.424320723  -0.016592945
C        0.764615979   0.506424731   0.001516748
C        0.840904592   0.421416893   0.017828412
C        0.011191382   0.762029960   0.017745819
C        0.088607170   0.675858466   0.025771238
C        0.252372338   0.762194202   0.019208457
C        0.328968282   0.677059398   0.004619251
C        0.486230061   0.758965283  -0.013192683
I        0.545807481   0.591469118  -0.055005388
C        0.774356553   0.758987531  -0.015744949
C        0.849979648   0.677047846   0.001655192
C        0.091881324   0.928894773   0.011836575
C        0.338541419   0.928911959   0.012461524
C        0.583767926   0.921596022  -0.004747561
C        0.839303733   0.921612996  -0.005643336
O        0.553528935   0.609082445   0.117748676
O        0.480957549   0.461939453   0.167425364
H        0.572214849   0.465732863   0.195548893
K_POINTS automatic 
  20 20 1   0 0 0 

