 &CONTROL
                 calculation = 'relax' ,
                      outdir = './tmp/' ,
                  pseudo_dir = '/home/deleted/pseudo_psl' ,
                      prefix = 'GCl_op' ,
                   verbosity = 'high' ,
               etot_conv_thr = 1.0D-5 ,
               forc_conv_thr = 4.0D-4 ,
                       nstep = 1000 ,
                    dipfield = .true. ,
 /
 &SYSTEM
                       ibrav = 4,
                           A = 9.88 ,
                           C = 15 ,
                         nat = 34,
                        ntyp = 4,
                     ecutwfc = 40.424239707 ,
                     ecutrho = 404.24239707 ,
                 occupations = 'smearing' ,
                     degauss = 0.01 ,
				   input_dft = 'vdW-DF' ,
 /
 &ELECTRONS
            electron_maxstep = 50001,
                    conv_thr = 1.0D-6 ,
                 mixing_mode = 'local-TF' ,
                 mixing_beta = 0.5 ,
 /
 &IONS
                ion_dynamics = 'bfgs' ,
 /
ATOMIC_SPECIES
    C   12.01100  C.revpbe-n-kjpaw_psl.0.1.UPF 
   Cl   35.45200  Cl.revpbe-n-kjpaw_psl.0.3.0.UPF 
    O   15.99940  O.revpbe-n-kjpaw_psl.0.1.UPF 
    H   1.008000  H.revpbe-kjpaw_psl.0.1.UPF
ATOMIC_POSITIONS crystal 
C        0.008846291   0.015742069  -0.001518744
C        0.254528922   0.009593677  -0.009199958
C        0.506382572   0.015830439  -0.000699023
C        0.760296014   0.020759563   0.016837519
C        0.010302486   0.266343410  -0.000364595
C        0.092208749   0.182023731  -0.004890746
C        0.259332738   0.262004552  -0.009347671
C        0.336080842   0.172726974  -0.011222914
C        0.502239236   0.262075907  -0.008928610
C        0.589529290   0.182060958  -0.004383581
C        0.755788076   0.266368676   0.000091720
C        0.842079190   0.184374857   0.005423530
C        0.006886806   0.513827535  -0.001294795
C        0.096395760   0.431786231  -0.000934868
C        0.269828422   0.512693253   0.001223221
C        0.350828600   0.424013713  -0.004757363
C        0.572677949   0.424149846  -0.005291683
C        0.742620698   0.512659273   0.000237247
C        0.835267826   0.431736621  -0.000884360
C        0.004089060   0.761662240  -0.003603575
C        0.089306589   0.678698928  -0.005220938
C        0.257356109   0.761828553  -0.003085272
C        0.343806424   0.680686211   0.009224005
C        0.501820222   0.776489720   0.029673185
Cl       0.596252987   0.695232164   0.093577152
C        0.770707736   0.774925852   0.023584212
C        0.836242546   0.680802179   0.006509798
C        0.087572895   0.927816608  -0.005562815
C        0.339909941   0.927969205  -0.005006954
C        0.591947698   0.937404067   0.016827207
C        0.844655019   0.937094563   0.014616285
O        0.340477241   0.424901970   0.197391837
O        0.364475495   0.566036880   0.199984681
H        0.306652151   0.504884980   0.110305634
K_POINTS automatic 
  4 4 1   0 0 0 

