 &CONTROL
                 calculation = 'relax' ,
                      outdir = './tmp/' ,
                  pseudo_dir = '/home/deleted/pseudo_psl' ,
                      prefix = 'GCl_op' ,
                   verbosity = 'high' ,
               etot_conv_thr = 1.0D-5 ,
               forc_conv_thr = 4.0D-4 ,
                       nstep = 1000 ,
                    dipfield = .true. ,
 /
 &SYSTEM
                       ibrav = 4,
                           A = 9.88 ,
                           C = 15 ,
                         nat = 34,
                        ntyp = 4,
                     ecutwfc = 40.424239707 ,
                     ecutrho = 404.24239707 ,
                 occupations = 'smearing' ,
                     degauss = 0.01 ,
				   input_dft = 'vdW-DF' ,
 /
 &ELECTRONS
            electron_maxstep = 50001,
                    conv_thr = 1.0D-6 ,
                 mixing_mode = 'local-TF' ,
                 mixing_beta = 0.5 ,
 /
 &IONS
                ion_dynamics = 'bfgs' ,
 /
ATOMIC_SPECIES
    C   12.01100  C.revpbe-n-kjpaw_psl.0.1.UPF 
   Cl   35.45200  Cl.revpbe-n-kjpaw_psl.0.3.0.UPF 
    O   15.99940  O.revpbe-n-kjpaw_psl.0.1.UPF 
    H   1.008000  H.revpbe-kjpaw_psl.0.1.UPF
ATOMIC_POSITIONS crystal 
C       -0.001015720   0.009788116   0.003143748
C        0.247145195   0.006612886  -0.005964184
C        0.497795982   0.008864698   0.005386577
C        0.750001572   0.012504786   0.023031682
C       -0.001054478   0.259644632   0.004144361
C        0.080970705   0.175529113  -0.000391390
C        0.246440779   0.255598011  -0.009445373
C        0.329128190   0.171084807  -0.011179760
C        0.496108287   0.255275549  -0.010262261
C        0.581404943   0.174855240  -0.000689894
C        0.747488425   0.259546589   0.003855440
C        0.831614479   0.176425869   0.010714442
C       -0.002306681   0.508537947   0.002392493
C        0.083427439   0.425644552   0.002774492
C        0.252776578   0.507554101   0.002391881
C        0.329398565   0.419340341  -0.010806641
C        0.576694032   0.419333963  -0.012618082
C        0.741816826   0.507972578  -0.000829802
C        0.828964932   0.425594634   0.001397588
C       -0.003227057   0.758126851  -0.001267540
C        0.080906955   0.674329515  -0.002196559
C        0.248802297   0.757635688   0.001052486
C        0.333788953   0.675318285   0.013374178
C        0.490924687   0.767213308   0.038657940
Cl       0.583132729   0.687933657   0.106326795
C        0.759361560   0.766792003   0.027914262
C        0.828697783   0.676766656   0.007863799
C        0.080095285   0.924277307  -0.002180385
C        0.331379476   0.923883410  -0.000191633
C        0.581593333   0.928992847   0.024318615
C        0.835026786   0.929114984   0.019505574
O        0.490253362   0.494320684  -0.026754005
O        0.385484666   0.607872289   0.192681110
H        0.424371717   0.574919508   0.243158815
K_POINTS automatic 
  4 4 1   0 0 0 

