 &CONTROL
                 calculation = 'bands' ,
                      outdir = './tmp/' ,
                  pseudo_dir = '/home/deleted/pseudo_psl' ,
                      prefix = 'GBr_op' ,
                   verbosity = 'high' ,
               etot_conv_thr = 1.0D-5 ,
               forc_conv_thr = 4.0D-4 ,
                       nstep = 1000 ,
                    dipfield = .true. ,
 /
 &SYSTEM
                       ibrav = 4,
                           A = 9.88 ,
                           C = 15 ,
                         nat = 34,
                        ntyp = 4,
                     ecutwfc = 40.424239707 ,
                     ecutrho = 404.24239707 ,
                 occupations = 'tetrahedra' ,
                     degauss = 0.01 ,
				   input_dft = 'vdW-DF' ,
 /
 &ELECTRONS
            electron_maxstep = 50001,
                    conv_thr = 1.0D-6 ,
                 mixing_mode = 'local-TF' ,
                 mixing_beta = 0.5 ,
 /
ATOMIC_SPECIES
    C   12.01100  C.revpbe-n-kjpaw_psl.0.1.UPF 
   Br   79.90350  Br.revpbe-n-kjpaw_psl.0.2.UPF 
    O   15.99940  O.revpbe-n-kjpaw_psl.0.1.UPF 
    H   1.008000  H.revpbe-kjpaw_psl.0.1.UPF
ATOMIC_POSITIONS crystal 
C        0.010225811   0.011754878  -0.009242018
C        0.256047589   0.003508682  -0.009985766
C        0.510231968   0.012991068  -0.008715942
C        0.761893573   0.018804199  -0.009286957
C        0.012699684   0.264515588  -0.008338995
C        0.094528491   0.178305286  -0.008414669
C        0.259690463   0.254618657  -0.005372409
C        0.337112802   0.167797060  -0.010233121
C        0.503746595   0.257550689  -0.010622008
C        0.591755606   0.179087066  -0.012288913
C        0.758233424   0.264918452  -0.010778014
C        0.845967129   0.184702227  -0.011121964
C        0.008512254   0.511149051  -0.006760645
C        0.098621276   0.429933481  -0.005839392
C        0.272360324   0.512298833   0.000294885
C        0.356504551   0.417849874   0.012264493
C        0.572902901   0.418916990  -0.007292820
C        0.742683629   0.510425850  -0.007212579
C        0.836450624   0.430163770  -0.008184861
C        0.003371276   0.757981975  -0.008193918
C        0.091331448   0.676309471  -0.006185964
C        0.260208349   0.756964216  -0.003452994
C        0.346922940   0.675219578   0.002680667
C        0.521484227   0.771838275   0.024864907
Br       0.383781895   0.416291438   0.167691732
C        0.760373443   0.770573747  -0.010071424
C        0.834282549   0.678772024  -0.008683531
C        0.088879775   0.923720057  -0.009185221
C        0.342236704   0.923872875  -0.006795990
C        0.598774665   0.938457112  -0.003932563
C        0.844825248   0.933553627  -0.008365285
O        0.601100820   0.696121228  -0.016579448
O        0.543585366   0.781295600   0.118967683
H        0.489457457   0.674748951   0.144697344
K_POINTS automatic  
4
0.0000000000    0.0000000000    0.0000000000 17
0.0000000000    0.5000000000    0.0000000000 10
0.3333333333    0.3333333333    0.0000000000 20
0.0000000000    0.0000000000    0.0000000000 1

