 &CONTROL
                 calculation = 'scf' ,
                      outdir = './tmp/' ,
                  pseudo_dir = '/home/deleted/pseudo_psl' ,
                      prefix = 'GCl_ip' ,
                   verbosity = 'high' ,
               etot_conv_thr = 1.0D-5 ,
               forc_conv_thr = 4.0D-4 ,
                       nstep = 1000 ,
                    dipfield = .true. ,
 /
 &SYSTEM
                       ibrav = 4,
                           A = 9.88 ,
                           C = 15 ,
                         nat = 34,
                        ntyp = 4,
                     ecutwfc = 40.424239707 ,
                     ecutrho = 404.24239707 ,
                 occupations = 'smearing' ,
                     degauss = 0.01 ,
				   input_dft = 'vdW-DF' ,
    nspin = 2 ,
    starting_magnetization(1) = 0.5,
    starting_magnetization(2) = 0.5,
    starting_magnetization(3) = 0.5,
 /
 &ELECTRONS
            electron_maxstep = 50001,
                    conv_thr = 1.0D-6 ,
                 mixing_mode = 'local-TF' ,
                 mixing_beta = 0.5 ,
 /
ATOMIC_SPECIES
    C   12.01100  C.revpbe-n-kjpaw_psl.0.1.UPF 
   Cl   35.45200  Cl.revpbe-n-kjpaw_psl.0.3.0.UPF 
    O   15.99940  O.revpbe-n-kjpaw_psl.0.1.UPF 
    H   1.008000  H.revpbe-kjpaw_psl.0.1.UPF
ATOMIC_POSITIONS (crystal)
C        0.000699131   0.002366137  -0.001948962
C        0.253341813   0.008715416  -0.000978462
C        0.499654640   0.002393797  -0.001532620
C        0.747601320  -0.002812949  -0.002774780
C       -0.002384567   0.249878274  -0.000801456
C        0.083317735   0.169822397  -0.001604466
C        0.251936406   0.257709855  -0.002500559
C        0.336521288   0.175051953  -0.002320481
C        0.503785542   0.257770968  -0.002849249
C        0.584504036   0.169858299  -0.001593320
C        0.750263068   0.249876075  -0.000907178
C        0.830756496   0.163514569  -0.001152484
C        0.000074605   0.502152801   0.000464659
C        0.078265518   0.416413006  -0.000026552
C        0.242622917   0.501480066  -0.001599442
C        0.322862554   0.422312422  -0.003518765
C        0.597498203   0.422317815  -0.004730625
C        0.756886418   0.501477604  -0.002818802
C        0.836148215   0.416425320  -0.000544112
C        0.005829091   0.755863189  -0.000643418
C        0.084079322   0.670163602   0.000461918
C        0.248031563   0.755883272  -0.000127377
C        0.327347331   0.670848442  -0.001903616
C        0.486748518   0.750022356  -0.004294452
Cl       0.542443262   0.586829851  -0.007179407
C        0.761280375   0.750002778  -0.005312164
C        0.841512678   0.670815883  -0.003022697
C        0.086481984   0.922382443  -0.001040371
C        0.333883236   0.922386420  -0.000729414
C        0.580404335   0.914557976  -0.002888859
C        0.832143524   0.914548413  -0.003416629
O        0.621310024   0.706305774   0.200388230
O        0.596676845   0.554796983   0.208688376
H        0.640972690   0.555385036   0.267517570
K_POINTS automatic 
  16 16 1   0 0 0 

