 &CONTROL
                 calculation = 'scf' ,
                      outdir = './tmp_subs/' ,
                  pseudo_dir = '/home/deleted/pseudo_psl' ,
                      prefix = 'GBr_ip-subs' ,
                   verbosity = 'high' ,
               etot_conv_thr = 1.0D-5 ,
               forc_conv_thr = 4.0D-4 ,
                       nstep = 1000 ,
                    dipfield = .true. ,
 /
 &SYSTEM
                       ibrav = 4,
                           A = 9.88 ,
                           C = 15 ,
                         nat = 31,
                        ntyp = 2,
                     ecutwfc = 40.424239707 ,
                     ecutrho = 404.24239707 ,
                 occupations = 'smearing' ,
                     degauss = 0.01 ,
				   input_dft = 'vdW-DF' ,
    nspin = 2 ,
    starting_magnetization(1) = 0.5,
    starting_magnetization(2) = 0.5,
 /
 &ELECTRONS
            electron_maxstep = 50001,
                    conv_thr = 1.0D-6 ,
                 mixing_mode = 'local-TF' ,
                 mixing_beta = 0.5 ,
 /
ATOMIC_SPECIES
    C   12.01100  C.revpbe-n-kjpaw_psl.0.1.UPF 
   Br   79.90350  Br.revpbe-n-kjpaw_psl.0.2.UPF 
ATOMIC_POSITIONS (crystal)
C       -0.001325846   0.009045882   0.002599208
C        0.251172483   0.015702880   0.005878375
C        0.497002819   0.009045062   0.002155868
C        0.745192962   0.003800552  -0.004372725
C       -0.005140722   0.256023121   0.008056053
C        0.080548900   0.176148669   0.002567954
C        0.248149009   0.263101512  -0.005646209
C        0.334009318   0.181396575  -0.004077261
C        0.501589588   0.263134264  -0.005483196
C        0.582254707   0.176161220   0.002535441
C        0.747811950   0.256030982   0.008121044
C        0.828050745   0.169477956   0.005931174
C       -0.002351624   0.508585245   0.019023025
C        0.075563169   0.422746623   0.013158983
C        0.238359965   0.507650171   0.000683538
C        0.314699770   0.426230955  -0.014207319
C        0.598190326   0.426311913  -0.013644640
C        0.755893930   0.507632635   0.001356820
C        0.833851170   0.422714045   0.013450958
C        0.003751682   0.762516703   0.013338823
C        0.081698763   0.676665123   0.018933610
C        0.245433014   0.762515453   0.012774529
C        0.323319564   0.677680506   0.000185664
C        0.480900482   0.759094143  -0.015384573
Br       0.539705212   0.592489440  -0.040124440
C        0.764642845   0.758979182  -0.014253742
C        0.840918928   0.677642809   0.001179258
C        0.084388244   0.929189930   0.008071579
C        0.331450279   0.929188955   0.007696999
C        0.577602846   0.922098175  -0.006335995
C        0.831076234   0.922103736  -0.005753557
K_POINTS automatic 
  16 16 1   0 0 0 

