 &CONTROL
                 calculation = 'scf' ,
                      outdir = './tmp/' ,
                  pseudo_dir = '/home/deleted/pseudo_psl' ,
                      prefix = 'GBr_op' ,
                   verbosity = 'high' ,
               etot_conv_thr = 1.0D-5 ,
               forc_conv_thr = 4.0D-4 ,
                       nstep = 1000 ,
                    dipfield = .true. ,
 /
 &SYSTEM
                       ibrav = 4,
                           A = 9.88 ,
                           C = 15 ,
                         nat = 33,
                        ntyp = 3,
                     ecutwfc = 40.424239707 ,
                     ecutrho = 404.24239707 ,
                 occupations = 'smearing' ,
                     degauss = 0.01 ,
				   input_dft = 'vdW-DF' ,
 /
 &ELECTRONS
            electron_maxstep = 50001,
                    conv_thr = 1.0D-6 ,
                 mixing_mode = 'local-TF' ,
                 mixing_beta = 0.5 ,
 /
ATOMIC_SPECIES
    C   12.01100  C.revpbe-n-kjpaw_psl.0.1.UPF 
   Br   79.90350  Br.revpbe-n-kjpaw_psl.0.2.UPF 
    O   15.99940  O.revpbe-n-kjpaw_psl.0.1.UPF 
ATOMIC_POSITIONS crystal 
C       -0.001034831  -0.000366714  -0.004023753
C        0.245171414  -0.010768948  -0.003522967
C        0.501774389  -0.000440515  -0.003630079
C        0.758030139   0.014859720  -0.004112594
C        0.008040033   0.256291993  -0.003606931
C        0.085385288   0.166825765  -0.003641070
C        0.252304396   0.243491745  -0.003665975
C        0.326336412   0.151566519  -0.003317957
C        0.492342589   0.243560070  -0.003282651
C        0.582579642   0.166804174  -0.003312262
C        0.749359256   0.256260126  -0.003395767
C        0.839171965   0.177160838  -0.003502773
C        0.001332321   0.501559317  -0.004080706
C        0.096559817   0.421051713  -0.004101625
C        0.274116901   0.498845510  -0.004719365
C        0.352295336   0.405590001  -0.004103768
C        0.554432461   0.405686767  -0.003752139
C        0.725753683   0.498915291  -0.004225229
C        0.825645506   0.421031180  -0.003781112
C       -0.012202922   0.745405044  -0.004437174
C        0.083006566   0.664879885  -0.004322411
C        0.258672409   0.745387894  -0.004307920
C        0.358619566   0.667518910  -0.004855782
C        0.530024224   0.760796157  -0.005100578
Br       0.663009107   0.735759376   0.235408306
C        0.732165477   0.760903618  -0.005250551
C        0.810243223   0.667673847  -0.004925070
C        0.076328754   0.910179053  -0.003936530
C        0.334966387   0.910113728  -0.003771933
C        0.592045640   0.922854187  -0.004278219
C        0.832078779   0.922959036  -0.004751184
O        0.407073252   0.623795180   0.213570755
O        0.331039482   0.477182869   0.206070347
K_POINTS automatic 
  16 16 1   0 0 0 

