&CONTROL
	calculation = 'scf' ,
	outdir = './tmp_subs/' ,
	pseudo_dir = '/home/deleted/pseudo_psl' ,
	prefix = 'GF_op-subs' ,
	verbosity = 'high' ,
	etot_conv_thr = 1.0D-5 ,
	forc_conv_thr = 4.0D-4 ,
	nstep = 1000 ,
	dipfield = .true. ,
/
&SYSTEM
	ibrav = 4,
	A = 9.88 ,
	C = 15 ,
	nat = 30,
	ntyp = 1,
	ecutwfc = 40.424239707 ,
	ecutrho = 404.24239707 ,
	occupations = 'smearing' ,
	degauss = 0.01 ,
    input_dft = 'vdW-DF' ,
/
&ELECTRONS
	electron_maxstep = 50001,
	conv_thr = 1.0D-6 ,
	mixing_mode = 'local-TF' ,
	mixing_beta = 0.5 ,
/
ATOMIC_SPECIES
	C	12.01100	C.revpbe-n-kjpaw_psl.0.1.UPF 
ATOMIC_POSITIONS crystal 
C        0.001536187   0.002590098  -0.003421467
C        0.256879934   0.013917795  -0.000511448
C        0.503105789   0.004802890   0.003224128
C        0.750333512  -0.003029621  -0.001567948
C        0.007271796   0.254125820  -0.003656438
C        0.094468285   0.176386760  -0.003829155
C        0.272413526   0.274051530  -0.001922448
C        0.349029212   0.185306741   0.002368152
C        0.593217070   0.169813915   0.009780347
C        0.756499788   0.246705715   0.002593690
C        0.838994338   0.165003428  -0.001490331
C        0.001667866   0.503066126  -0.003167879
C        0.087191453   0.421307487  -0.003068162
C        0.254608746   0.510492787  -0.002967183
C        0.353879614   0.447686651  -0.002447151
C        0.522973013   0.268318272   0.025203587
C        0.741849281   0.483666658  -0.005021840
C        0.834576750   0.414618264  -0.002242260
C       -0.007763624   0.747837243  -0.002594488
C        0.079157437   0.669790679  -0.002580426
C        0.247804286   0.759036222  -0.001043371
C        0.328976234   0.676844571  -0.002080167
C        0.494274726   0.751086211  -0.002254059
C        0.557434388   0.651273960  -0.002889461
C        0.729381283   0.731948111  -0.003158990
C        0.817428223   0.651025894  -0.003257506
C        0.084152658   0.920793426  -0.002881922
C        0.335381670   0.925790114   0.001711801
C        0.583748463   0.918197201  -0.000946653
C        0.827005812   0.908228615  -0.002927762
K_POINTS automatic 
	16 16 1   0 0 0 
