 &CONTROL
                 calculation = 'bands' ,
                      outdir = './tmp/' ,
                  pseudo_dir = '/home/deleted/pseudo_psl' ,
                      prefix = 'GBr_ip' ,
                   verbosity = 'high' ,
               etot_conv_thr = 1.0D-5 ,
               forc_conv_thr = 4.0D-4 ,
                       nstep = 1000 ,
                    dipfield = .true. ,
 /
 &SYSTEM
                       ibrav = 4,
                           A = 9.88 ,
                           C = 15 ,
                         nat = 34,
                        ntyp = 4,
                     ecutwfc = 40.424239707 ,
                     ecutrho = 404.24239707 ,
                 occupations = 'tetrahedra' ,
                     degauss = 0.01 ,
				   input_dft = 'vdW-DF' ,
 /
 &ELECTRONS
            electron_maxstep = 50001,
                    conv_thr = 1.0D-6 ,
                 mixing_mode = 'local-TF' ,
                 mixing_beta = 0.5 ,
 /
ATOMIC_SPECIES
    C   12.01100  C.revpbe-n-kjpaw_psl.0.1.UPF 
   Br   79.90350  Br.revpbe-n-kjpaw_psl.0.2.UPF 
    O   15.99940  O.revpbe-n-kjpaw_psl.0.1.UPF 
    H   1.008000  H.revpbe-kjpaw_psl.0.1.UPF
ATOMIC_POSITIONS crystal 
C       -0.010898588   0.002901706   0.001457218
C        0.241815820   0.009814574   0.005140102
C        0.487572396   0.003151992   0.002539781
C        0.735817333  -0.002340620  -0.004448702
C       -0.014633118   0.249987459   0.007894644
C        0.071089562   0.170124205   0.002645766
C        0.239089182   0.257377320  -0.004424352
C        0.324818479   0.175606378  -0.004499539
C        0.492263344   0.257568256  -0.007228454
C        0.572806322   0.170370021   0.001138701
C        0.738360280   0.250107512   0.006113062
C        0.818611713   0.163481567   0.004976174
C       -0.012172630   0.502546488   0.017387784
C        0.065772508   0.416533015   0.013921292
C        0.229227229   0.501613157   0.004809429
C        0.306080183   0.420948361  -0.009723731
C        0.589182305   0.420580446  -0.017285993
C        0.746729550   0.501658755  -0.002678104
C        0.824364010   0.416733376   0.010007120
C       -0.005792502   0.756462463   0.010645203
C        0.071910816   0.670638465   0.017668518
C        0.235861618   0.756674219   0.014201987
C        0.314200908   0.671513006   0.004961835
C        0.471794026   0.752133921  -0.009388220
Br       0.529386808   0.586525841  -0.039575998
C        0.754907212   0.752437088  -0.016416646
C        0.831559435   0.671410883  -0.002239946
C        0.074922273   0.923126139   0.006554192
C        0.322010585   0.923236059   0.008062481
C        0.568291276   0.915839289  -0.004476831
C        0.821346459   0.915710248  -0.006909716
O        0.561800225   0.591107371   0.170331918
O        0.678597594   0.549852158   0.186564588
H        0.597876889   0.686326278   0.206099102
K_POINTS crystal_b 
4
0.0000000000    0.0000000000    0.0000000000 17
0.0000000000    0.5000000000    0.0000000000 10
0.3333333333    0.3333333333    0.0000000000 20
0.0000000000    0.0000000000    0.0000000000 1

