 &CONTROL
                 calculation = 'scf' ,
                      outdir = './tmp/' ,
                  pseudo_dir = '/home/deleted/pseudo_psl' ,
                      prefix = 'GI_ip' ,
                   verbosity = 'high' ,
               etot_conv_thr = 1.0D-5 ,
               forc_conv_thr = 4.0D-4 ,
                       nstep = 1000 ,
                    dipfield = .true. ,
 /
 &SYSTEM
                       ibrav = 4,
                           A = 9.88 ,
                           C = 15 ,
                         nat = 33,
                        ntyp = 3,
                     ecutwfc = 40.424239707 ,
                     ecutrho = 404.24239707 ,
                 occupations = 'smearing' ,
                     degauss = 0.01 ,
				   input_dft = 'vdW-DF' ,
 /
 &ELECTRONS
            electron_maxstep = 50001,
                    conv_thr = 1.0D-6 ,
                 mixing_mode = 'local-TF' ,
                 mixing_beta = 0.5 ,
 /
ATOMIC_SPECIES
    C   12.01100  C.revpbe-n-kjpaw_psl.0.1.UPF 
    I  126.90400  I.revpbe-n-kjpaw_psl.0.2.UPF 
    O   15.99940  O.revpbe-n-kjpaw_psl.0.1.UPF 
ATOMIC_POSITIONS crystal 
C        0.009099023   0.007733067  -0.001588384
C        0.261970175   0.014755781  -0.005143790
C        0.507675724   0.008027340  -0.002796219
C        0.755825047   0.002825274   0.006906325
C        0.005418113   0.254744510  -0.009251804
C        0.091013086   0.174854968  -0.002443599
C        0.258305323   0.261704221   0.007179336
C        0.344607687   0.179988819   0.007170187
C        0.512480313   0.261833959   0.008726196
C        0.592857769   0.175132767  -0.001728173
C        0.758472641   0.254851680  -0.008191196
C        0.838601520   0.168180510  -0.005152391
C        0.008287002   0.507518366  -0.023565044
C        0.086123345   0.421258351  -0.017725746
C        0.248810705   0.506337663  -0.005342865
C        0.324866278   0.425259054   0.012908181
C        0.609595649   0.425724118   0.016504230
C        0.767107874   0.506363224  -0.001412288
C        0.844431851   0.421479606  -0.015423473
C        0.014446769   0.761497739  -0.015484154
C        0.092296274   0.675520194  -0.023668596
C        0.256389563   0.761728223  -0.017924006
C        0.334038481   0.676722254  -0.005654764
C        0.490782567   0.757765882   0.013343332
I        0.548298218   0.591542749   0.065508446
C        0.774976946   0.757081963   0.015656282
C        0.852169324   0.676564017  -0.001632487
C        0.095038973   0.928084472  -0.008212592
C        0.342136929   0.928143047  -0.009421812
C        0.588066061   0.921369356   0.006992718
C        0.841908067   0.921004884   0.008460643
O        0.400088897   0.745971345   0.207612033
O        0.340918437   0.595393209   0.204795477
K_POINTS automatic 
  16 16 1   0 0 0 

