 &CONTROL
                 calculation = 'nscf' ,
                      outdir = './tmp/' ,
                  pseudo_dir = '/home/deleted/pseudo_psl' ,
                      prefix = 'GI_ip' ,
                   verbosity = 'high' ,
               etot_conv_thr = 1.0D-5 ,
               forc_conv_thr = 4.0D-4 ,
                       nstep = 1000 ,
                    dipfield = .true. ,
 /
 &SYSTEM
                       ibrav = 4,
                           A = 9.88 ,
                           C = 15 ,
                         nat = 32,
                        ntyp = 3,
                     ecutwfc = 40.424239707 ,
                     ecutrho = 404.24239707 ,
                 occupations = 'tetrahedra' ,
                     degauss = 0.01 ,
				   input_dft = 'vdW-DF' ,
    nspin = 2 ,
    starting_magnetization(1) = 0.5,
    starting_magnetization(2) = 0.5,
    starting_magnetization(3) = 0.5,
 /
 &ELECTRONS
            electron_maxstep = 50001,
                    conv_thr = 1.0D-6 ,
                 mixing_mode = 'local-TF' ,
                 mixing_beta = 0.5 ,
 /
ATOMIC_SPECIES
    C   12.01100  C.revpbe-n-kjpaw_psl.0.1.UPF 
    I  126.90400  I.revpbe-n-kjpaw_psl.0.2.UPF 
    O   15.99940  O.revpbe-n-kjpaw_psl.0.1.UPF 
ATOMIC_POSITIONS (crystal)
C        0.002531481   0.003700112  -0.006389713
C        0.253197940   0.006395880  -0.013198939
C        0.501168631   0.003700112  -0.006389713
C        0.751013833   0.002027666   0.007577387
C        0.000585825   0.252049778  -0.008160045
C        0.085022929   0.170423102  -0.007389891
C        0.252707447   0.255897972  -0.005820238
C        0.335636179   0.171272358  -0.007259489
C        0.503190525   0.255897972  -0.005820238
C        0.585400172   0.170423102  -0.007389891
C        0.751463953   0.252049778  -0.008160045
C        0.833486015   0.166972032  -0.003342339
C        0.001363019   0.502726037  -0.017779403
C        0.082990773   0.418186153  -0.013603915
C        0.250121292   0.501546804  -0.009027230
C        0.330497848   0.419508810  -0.002964320
C        0.589010960   0.419508810  -0.002964320
C        0.751425512   0.501546804  -0.009027230
C        0.835195379   0.418186153  -0.013603915
C        0.004252615   0.754952559  -0.018455231
C        0.084876859   0.669753718  -0.022216673
C        0.250699944   0.754952559  -0.018455231
C        0.331541584   0.671025542  -0.006313427
C        0.488624869   0.756441715   0.014407723
I        0.563101033   0.626202066   0.099842589
C        0.767816846   0.756441715   0.014407723
C        0.839483956   0.671025542  -0.006313427
C        0.086045156   0.921360546  -0.013754829
C        0.335315390   0.921360546  -0.013754829
C        0.583082107   0.919472935   0.006891341
C        0.836390827   0.919472935   0.006891341
O        0.632759096   0.765518192   0.197536423
K_POINTS automatic 
  20 20 1   0 0 0 

