 &CONTROL
                 calculation = 'scf' ,
                      outdir = './tmp/' ,
                  pseudo_dir = '/home/deleted/pseudo_psl' ,
                      prefix = 'GF_op' ,
                   verbosity = 'high' ,
               etot_conv_thr = 1.0D-5 ,
               forc_conv_thr = 4.0D-4 ,
                       nstep = 1000 ,
                    dipfield = .true. ,
 /
 &SYSTEM
                       ibrav = 4,
                           A = 9.88 ,
                           C = 15 ,
                         nat = 34,
                        ntyp = 4,
                     ecutwfc = 40.424239707 ,
                     ecutrho = 404.24239707 ,
                 occupations = 'smearing' ,
                     degauss = 0.01 ,
				   input_dft = 'vdW-DF' ,
 /
 &ELECTRONS
            electron_maxstep = 50001,
                    conv_thr = 1.0D-6 ,
                 mixing_mode = 'local-TF' ,
                 mixing_beta = 0.5 ,
 /
ATOMIC_SPECIES
    C   12.01100  C.revpbe-n-kjpaw_psl.0.1.UPF 
    F   18.99800  F.revpbe-n-kjpaw_psl.0.1.UPF 
    O   15.99940  O.revpbe-n-kjpaw_psl.0.1.UPF 
	H   1.00800   H.revpbe-kjpaw_psl.0.1.UPF
ATOMIC_POSITIONS crystal 
C       -0.010186013  -0.000414426   0.006055568
C        0.236746923  -0.005705863   0.013269203
C        0.488775121   0.000640826   0.017752136
C        0.738092282   0.001663180   0.006537600
C       -0.009383918   0.250688460   0.005816009
C        0.072882975   0.166320434   0.009514503
C        0.241089136   0.248067836   0.011113926
C        0.318526810   0.158546914   0.011917594
C        0.483995094   0.247431735   0.009529727
C        0.570603332   0.166774205   0.010160475
C        0.736719689   0.251005756   0.007511661
C        0.822190907   0.168331654   0.005503387
C       -0.012754290   0.498448792   0.006682923
C        0.076403492   0.416514134   0.008265760
C        0.251393869   0.499648158   0.015762920
C        0.333355066   0.410039058   0.011856867
C        0.554303469   0.410117870   0.004989876
C        0.723336327   0.498293090  -0.000129164
C        0.815817817   0.416757526   0.004469714
C       -0.013810768   0.747540258   0.004557587
C        0.070393315   0.664222100   0.009416691
C        0.237593099   0.745332270   0.018084529
C        0.322285499   0.664322678   0.026758038
C        0.486938479   0.757452376   0.056240719
F        0.610332810   0.690641995  -0.067570140
C        0.753568231   0.760614988  -0.026724668
C        0.818902448   0.667127990  -0.007235262
C        0.069645083   0.912765919   0.007520333
C        0.321030765   0.913256826   0.018914244
C        0.574893858   0.921695065   0.022905384
C        0.824145892   0.919296911  -0.005075369
O        0.824106803   0.621853352   0.169446140
O        0.544455825   0.706072297   0.110461313
H        0.743185187   0.644738942   0.189173723
K_POINTS automatic 
  16 16 1   0 0 0 