 &CONTROL
                 calculation = 'nscf' ,
                      outdir = './tmp/' ,
                  pseudo_dir = '/home/deleted/pseudo_psl' ,
                      prefix = 'GCl_op' ,
                   verbosity = 'high' ,
               etot_conv_thr = 1.0D-5 ,
               forc_conv_thr = 4.0D-4 ,
                       nstep = 1000 ,
                    dipfield = .true. ,
 /
 &SYSTEM
                       ibrav = 4,
                           A = 9.88 ,
                           C = 15 ,
                         nat = 33,
                        ntyp = 3,
                     ecutwfc = 40.424239707 ,
                     ecutrho = 404.24239707 ,
                 occupations = 'tetrahedra' ,
                     degauss = 0.01 ,
				   input_dft = 'vdW-DF' ,
 /
 &ELECTRONS
            electron_maxstep = 50001,
                    conv_thr = 1.0D-6 ,
                 mixing_mode = 'local-TF' ,
                 mixing_beta = 0.5 ,
 /
ATOMIC_SPECIES
    C   12.01100  C.revpbe-n-kjpaw_psl.0.1.UPF 
   Cl   35.45200  Cl.revpbe-n-kjpaw_psl.0.3.0.UPF 
    O   15.99940  O.revpbe-n-kjpaw_psl.0.1.UPF 
ATOMIC_POSITIONS crystal 
C        0.004714280   0.006773326  -0.003653816
C        0.249824025  -0.000351949  -0.012132930
C        0.502059046   0.006773326  -0.003653816
C        0.755963094   0.011926187   0.015235775
C        0.005933209   0.257245105  -0.001781707
C        0.088095648   0.173028286  -0.006937477
C        0.255229494   0.252579437  -0.011441536
C        0.331509459   0.163018918  -0.013982984
C        0.497349943   0.252579437  -0.011441536
C        0.584932637   0.173028286  -0.006937477
C        0.751311896   0.257245105  -0.001781707
C        0.837896402   0.175792804   0.003682532
C        0.002155206   0.504310412  -0.002347580
C        0.092200041   0.422599390  -0.002017198
C        0.265989704   0.503330055  -0.000259783
C        0.348743888   0.414784030  -0.006083480
C        0.566040141   0.414784030  -0.006083480
C        0.737340351   0.503330055  -0.000259783
C        0.830399349   0.422599390  -0.002017198
C       -0.000442122   0.752153813  -0.005120514
C        0.084644461   0.669288923  -0.006612422
C        0.252595934   0.752153813  -0.005120514
C        0.339181401   0.670919995   0.006416143
C        0.497991864   0.767309286   0.025244753
Cl       0.594063309   0.688126621   0.089596944
C        0.769317424   0.767309286   0.025244753
C        0.831738593   0.670919995   0.006416143
C        0.083071004   0.918344077  -0.007882152
C        0.335273072   0.918344077  -0.007882152
C        0.587905160   0.928802057   0.013964517
C        0.840896895   0.928802057   0.013964517
O        0.427684564   0.355369128   0.166398446
O        0.481723956   0.463447913   0.225933388
K_POINTS automatic 
  20 20 1   0 0 0 

