 &CONTROL
                 calculation = 'scf' ,
                      outdir = './tmp/' ,
                  pseudo_dir = '/home/deleted/pseudo_psl' ,
                      prefix = 'GCl_op' ,
                   verbosity = 'high' ,
               etot_conv_thr = 1.0D-5 ,
               forc_conv_thr = 4.0D-4 ,
                       nstep = 1000 ,
                    dipfield = .true. ,
 /
 &SYSTEM
                       ibrav = 4,
                           A = 9.88 ,
                           C = 15 ,
                         nat = 34,
                        ntyp = 4,
                     ecutwfc = 40.424239707 ,
                     ecutrho = 404.24239707 ,
                 occupations = 'smearing' ,
                     degauss = 0.01 ,
				   input_dft = 'vdW-DF' ,
    nspin = 2 ,
    starting_magnetization(1) = 0.5,
    starting_magnetization(2) = 0.5,
    starting_magnetization(3) = 0.5,
 /
 &ELECTRONS
            electron_maxstep = 50001,
                    conv_thr = 1.0D-6 ,
                 mixing_mode = 'local-TF' ,
                 mixing_beta = 0.5 ,
 /
ATOMIC_SPECIES
    C   12.01100  C.revpbe-n-kjpaw_psl.0.1.UPF 
   Cl   35.45200  Cl.revpbe-n-kjpaw_psl.0.3.0.UPF 
    O   15.99940  O.revpbe-n-kjpaw_psl.0.1.UPF 
    H   1.008000  H.revpbe-kjpaw_psl.0.1.UPF
ATOMIC_POSITIONS (crystal)
C        0.015778026  -0.003701880  -0.005368842
C        0.261872668  -0.009448347  -0.012370221
C        0.513492984  -0.003872893  -0.003691605
C        0.767175171   0.000994945   0.013069414
C        0.017396350   0.246954169  -0.003960676
C        0.099289681   0.162689413  -0.008205920
C        0.266570242   0.243073339  -0.012640576
C        0.343372420   0.153550485  -0.014181258
C        0.509578113   0.242743192  -0.012224986
C        0.596670779   0.162495062  -0.007617131
C        0.762845066   0.246968106  -0.003278694
C        0.848917419   0.164590302   0.001861984
C        0.014072988   0.494761428  -0.004960458
C        0.103515255   0.412461080  -0.004502681
C        0.276949980   0.493556905  -0.002333223
C        0.357658911   0.405001661  -0.009039255
C        0.580278546   0.404855420  -0.009158444
C        0.749751788   0.493517236  -0.003856840
C        0.842255377   0.412385271  -0.004532622
C        0.011152377   0.742574948  -0.007715029
C        0.096497812   0.659539967  -0.009050507
C        0.264888245   0.742629919  -0.006861323
C        0.351331667   0.661793558   0.005529269
C        0.508827459   0.756249431   0.028025467
Cl       0.600181298   0.674202234   0.093675905
C        0.774967981   0.754324070   0.017568368
C        0.843028936   0.662193130   0.001679688
C        0.094680251   0.908625631  -0.009426097
C        0.347163368   0.908736200  -0.008237945
C        0.598710084   0.917363414   0.014095437
C        0.851185583   0.916759344   0.009773520
O        0.349787630   0.434269436   0.203781676
O        0.411876845   0.602879553   0.195291776
H        0.384941624   0.428126140   0.263821794
K_POINTS automatic 
  16 16 1   0 0 0 

