 &CONTROL
                 calculation = 'relax' ,
                      outdir = './tmp/' ,
                  pseudo_dir = '/home/deleted/pseudo_psl' ,
                      prefix = 'GI_op' ,
                   verbosity = 'high' ,
               etot_conv_thr = 1.0D-5 ,
               forc_conv_thr = 4.0D-4 ,
                       nstep = 1000 ,
                    dipfield = .true. ,
 /
 &SYSTEM
                       ibrav = 4,
                           A = 9.88 ,
                           C = 15 ,
                         nat = 34,
                        ntyp = 4,
                     ecutwfc = 40.424239707 ,
                     ecutrho = 404.24239707 ,
                 occupations = 'smearing' ,
                     degauss = 0.01 ,
				   input_dft = 'vdW-DF' ,
    nspin = 2 ,
    starting_magnetization(1) = 0.5,
    starting_magnetization(2) = 0.5,
    starting_magnetization(3) = 0.5,
	starting_magnetization(4) = 0.5,
 /
 &ELECTRONS
            electron_maxstep = 50001,
                    conv_thr = 1.0D-6 ,
                 mixing_mode = 'local-TF' ,
                 mixing_beta = 0.5 ,
 /
 &IONS
                ion_dynamics = 'bfgs' ,
 /
ATOMIC_SPECIES
    C   12.01100  C.revpbe-n-kjpaw_psl.0.1.UPF 
    I  126.90400  I.revpbe-n-kjpaw_psl.0.2.UPF 
    O   15.99940  O.revpbe-n-kjpaw_psl.0.1.UPF 

    H   1.008000  H.revpbe-kjpaw_psl.0.1.UPF
ATOMIC_POSITIONS (crystal)
C       -0.006210775  -0.009594999  -0.003890041
C        0.240040721  -0.019918558  -0.003151324
C        0.496615776  -0.009594999  -0.003890041
C        0.752856749   0.005713497  -0.005015443
C        0.002852309   0.247030831  -0.003442769
C        0.080166997   0.157596380  -0.003382478
C        0.247137377   0.234337896  -0.003110962
C        0.321182507   0.142365015  -0.003001110
C        0.487200519   0.234337896  -0.003110962
C        0.577429383   0.157596380  -0.003382478
C        0.744178521   0.247030831  -0.003442769
C        0.833966622   0.167933246  -0.004000275
C       -0.003808810   0.492382380  -0.003322091
C        0.091357307   0.411812025  -0.003269956
C        0.268964840   0.489661364  -0.003512088
C        0.347045638   0.396424129  -0.003394096
C        0.549378491   0.396424129  -0.003394096
C        0.720696523   0.489661364  -0.003512088
C        0.820454715   0.411812025  -0.003269956
C       -0.017320442   0.736226987  -0.003672891
C        0.077820206   0.655640412  -0.003508120
C        0.253547429   0.736226987  -0.003672891
C        0.353357105   0.658511135  -0.004005020
C        0.524645707   0.751760832  -0.004755726
I        0.686812865   0.873625730   0.254125013
C        0.727115125   0.751760832  -0.004755726
C        0.805154029   0.658511135  -0.004005020
C        0.071139571   0.900996565  -0.003494182
C        0.329856994   0.900996565  -0.003494182
C        0.586898420   0.913796477  -0.004879624
C        0.826898057   0.913796477  -0.004879624
O        0.547079109   0.594158217   0.187119468
O        0.488823745   0.477647491   0.237040217
H        0.653745029   0.468006053   0.212079844
K_POINTS automatic 
  4 4 1   0 0 0 

