 &CONTROL
                 calculation = 'nscf' ,
                      outdir = './tmp/' ,
                  pseudo_dir = '/home/deleted/pseudo_psl' ,
                      prefix = 'GCl_op' ,
                   verbosity = 'high' ,
               etot_conv_thr = 1.0D-5 ,
               forc_conv_thr = 4.0D-4 ,
                       nstep = 1000 ,
                    dipfield = .true. ,
 /
 &SYSTEM
                       ibrav = 4,
                           A = 9.88 ,
                           C = 15 ,
                         nat = 34,
                        ntyp = 4,
                     ecutwfc = 40.424239707 ,
                     ecutrho = 404.24239707 ,
                 occupations = 'tetrahedra' ,
                     degauss = 0.01 ,
				   input_dft = 'vdW-DF' ,
    nspin = 2 ,
    starting_magnetization(1) = 0.5,
    starting_magnetization(2) = 0.5,
    starting_magnetization(3) = 0.5,
 /
 &ELECTRONS
            electron_maxstep = 50001,
                    conv_thr = 1.0D-6 ,
                 mixing_mode = 'local-TF' ,
                 mixing_beta = 0.5 ,
 /
ATOMIC_SPECIES
    C   12.01100  C.revpbe-n-kjpaw_psl.0.1.UPF 
   Cl   35.45200  Cl.revpbe-n-kjpaw_psl.0.3.0.UPF 
    O   15.99940  O.revpbe-n-kjpaw_psl.0.1.UPF 
    H   1.008000  H.revpbe-kjpaw_psl.0.1.UPF
ATOMIC_POSITIONS (crystal)
C       -0.002555849  -0.008200230  -0.004474482
C        0.242940964  -0.014653097  -0.012705009
C        0.494848159  -0.008261731  -0.004751017
C        0.748508765  -0.003394198   0.013441247
C       -0.001531488   0.242125002  -0.002913266
C        0.080697238   0.158184834  -0.007707718
C        0.247974923   0.237992548  -0.011956976
C        0.324509412   0.148547201  -0.014366851
C        0.490489450   0.237956762  -0.012007415
C        0.577939958   0.158132607  -0.007870853
C        0.744058101   0.242091694  -0.003046306
C        0.830349079   0.160260976   0.002162450
C       -0.005004763   0.489551533  -0.003663525
C        0.084544990   0.407707229  -0.003142332
C        0.258155728   0.488385533  -0.001115099
C        0.340135170   0.400142034  -0.007452407
C        0.560461012   0.400097240  -0.007481641
C        0.730653395   0.488326995  -0.001156078
C        0.823567251   0.407652114  -0.003219330
C       -0.007252136   0.737535398  -0.006359594
C        0.077537924   0.654601470  -0.008086740
C        0.245290363   0.737542948  -0.006354534
C        0.331750944   0.656525110   0.005587796
C        0.489960778   0.752767738   0.024625577
Cl       0.587246756   0.674518515   0.087841319
C        0.763247978   0.752628782   0.024923581
C        0.825204152   0.656461294   0.005616995
C        0.076071292   0.903804739  -0.008670107
C        0.328271640   0.903795951  -0.008770380
C        0.580668538   0.913916282   0.012642424
C        0.833693947   0.913928824   0.012855544
O        0.768841581   0.936073306   0.235702375
O        0.627822334   0.938702254   0.224565702
H        0.815950846   1.002395258   0.288257937
K_POINTS automatic 
  20 20 1   0 0 0 

