 &CONTROL
                 calculation = 'scf' ,
                      outdir = './tmp/' ,
                  pseudo_dir = '/home/deleted/pseudo_psl' ,
                      prefix = 'GBr_op' ,
                   verbosity = 'high' ,
               etot_conv_thr = 1.0D-5 ,
               forc_conv_thr = 4.0D-4 ,
                       nstep = 1000 ,
                    dipfield = .true. ,
 /
 &SYSTEM
                       ibrav = 4,
                           A = 9.88 ,
                           C = 15 ,
                         nat = 33,
                        ntyp = 3,
                     ecutwfc = 40.424239707 ,
                     ecutrho = 404.24239707 ,
                 occupations = 'smearing' ,
                     degauss = 0.01 ,
				   input_dft = 'vdW-DF' ,
    nspin = 2 ,
    starting_magnetization(1) = 0.5,
    starting_magnetization(2) = 0.5,
    starting_magnetization(3) = 0.5,
 /
 &ELECTRONS
            electron_maxstep = 50001,
                    conv_thr = 1.0D-6 ,
                 mixing_mode = 'local-TF' ,
                 mixing_beta = 0.5 ,
 /
ATOMIC_SPECIES
    C   12.01100  C.revpbe-n-kjpaw_psl.0.1.UPF 
   Br   79.90350  Br.revpbe-n-kjpaw_psl.0.2.UPF 
    O   15.99940  O.revpbe-n-kjpaw_psl.0.1.UPF 
ATOMIC_POSITIONS (crystal)
C        0.004309619   0.002046722  -0.007091365
C        0.250651351  -0.008363186  -0.007733719
C        0.507325222   0.002147913  -0.007576504
C        0.763224079   0.017043052  -0.006979230
C        0.013229341   0.258673269  -0.006677773
C        0.090681153   0.169252107  -0.006805978
C        0.257600719   0.245892827  -0.007240028
C        0.332173869   0.154651793  -0.007373106
C        0.497666506   0.245812440  -0.006431440
C        0.588027953   0.169315099  -0.006674669
C        0.754951424   0.258668606  -0.006616165
C        0.844584239   0.179815706  -0.006452751
C        0.006751260   0.503933579  -0.008157448
C        0.101822809   0.423635729  -0.007694107
C        0.279058099   0.501596768  -0.008405590
C        0.357462353   0.408363035  -0.007018171
C        0.560124187   0.408759035  -0.005108765
C        0.732571927   0.501841797  -0.008278219
C        0.831431752   0.423815292  -0.007730852
C       -0.006320451   0.747991951  -0.008577593
C        0.088727589   0.667748242  -0.008571279
C        0.264054418   0.747973555  -0.008585447
C        0.363891430   0.669850129  -0.008885455
C        0.535606786   0.762841651  -0.008662814
Br       0.506404749   0.471382079   0.178456673
C        0.736808858   0.762793651  -0.008316107
C        0.815709829   0.669775029  -0.008906034
C        0.082125830   0.912860482  -0.007829052
C        0.340373016   0.912873682  -0.008029867
C        0.597447572   0.925267477  -0.007916120
C        0.837245922   0.925106416  -0.007329906
O        0.443549022   0.869025104   0.214598931
O        0.580043749   0.896729535   0.216741671
K_POINTS automatic 
  16 16 1   0 0 0 

