 &CONTROL
                 calculation = 'nscf' ,
                      outdir = './tmp/' ,
                  pseudo_dir = '/home/deleted/pseudo_psl' ,
                      prefix = 'MVG_to' ,
                    dipfield = .true. ,
                   verbosity = 'high',
                       nstep = 1000,
               forc_conv_thr = 4.0D-4,
               etot_conv_thr = 1.0D-5
 /
 &SYSTEM
                       ibrav = 4,
                           A = 9.88 ,
                           C = 15 ,
                         nat = 32,
                        ntyp = 2,
                     ecutwfc = 40.424239707 ,
                     ecutrho = 404.24239707 ,
                 occupations = 'tetrahedra' ,
                     degauss = 0.01 ,
				   input_dft = 'vdW-DF' ,
    nspin = 2 ,
    starting_magnetization(1) = 0.5,
	starting_magnetization(2) = 0.5,
 /
 &ELECTRONS
            electron_maxstep = 50001,
                    conv_thr = 1.0D-6 ,
                 mixing_mode = 'local-TF' ,
                 mixing_beta = 0.5 ,
 /
 &IONS
                ion_dynamics = 'bfgs' ,
 /
ATOMIC_SPECIES
    C   12.01100  C.revpbe-n-kjpaw_psl.0.1.UPF 
    O   15.99940  O.revpbe-n-kjpaw_psl.0.1.UPF 
ATOMIC_POSITIONS crystal 
C        0.004307820   0.006764701  -0.005371761
C        0.250844800   0.001689599  -0.009865150
C        0.502456883   0.006764701  -0.005371761
C        0.755860938   0.011721875   0.004734254
C        0.006533624   0.258094351  -0.006085181
C        0.087864657   0.173366367  -0.008827134
C        0.255258035   0.254052165  -0.011744752
C        0.332222555   0.164445111  -0.012723507
C        0.498794129   0.254052165  -0.011744752
C        0.585501709   0.173366367  -0.008827134
C        0.751560728   0.258094351  -0.006085181
C        0.837659097   0.175318196  -0.003186855
C        0.003063413   0.506126826  -0.003731993
C        0.092660239   0.423580584  -0.004530894
C        0.265836680   0.505037130  -0.002055297
C        0.345598263   0.415818586  -0.008812812
C        0.570220322   0.415818586  -0.008812812
C        0.739200451   0.505037130  -0.002055297
C        0.830920345   0.423580584  -0.004530894
C       -0.000849335   0.753465205  -0.003472592
C        0.085238571   0.670477144  -0.005172090
C        0.254314541   0.753465205  -0.003472592
C        0.342186981   0.673877262   0.005359346
C        0.505289179   0.763724832   0.018557124
C        0.600005298   0.700010597   0.058301219
C        0.758435653   0.763724832   0.018557124
C        0.831690281   0.673877262   0.005359346
C        0.083427983   0.919638895  -0.006369206
C        0.336210911   0.919638895  -0.006369206
C        0.587565785   0.926656363   0.005462632
C        0.839090577   0.926656363   0.005462632
O        0.561028885   0.622057771   0.127425173
K_POINTS automatic 
  20 20 1   0 0 0 

