 &CONTROL
                 calculation = 'scf' ,
                      outdir = './tmp/' ,
                  pseudo_dir = '/home/deleted/pseudo_psl' ,
                      prefix = 'GCl_ip' ,
                    dipfield = .true. ,
                   verbosity = 'high',
                       nstep = 1000,
               forc_conv_thr = 4.0D-4,
               etot_conv_thr = 1.0D-5
 /
 &SYSTEM
                       ibrav = 4,
                           A = 9.88 ,
                           C = 15 ,
                         nat = 32,
                        ntyp = 2,
                     ecutwfc = 40.424239707 ,
                     ecutrho = 404.24239707 ,
                 occupations = 'smearing' ,
                     degauss = 0.01 ,
				   input_dft = 'vdW-DF' ,
 /
 &ELECTRONS
            electron_maxstep = 50001,
                    conv_thr = 1.0D-6 ,
                 mixing_mode = 'local-TF' ,
                 mixing_beta = 0.5 ,
 /
ATOMIC_SPECIES
    C   12.01100  C.revpbe-n-kjpaw_psl.0.1.UPF 
   Cl   35.45200  Cl.revpbe-n-kjpaw_psl.0.3.0.UPF 
ATOMIC_POSITIONS crystal 
C        0.000285750  -0.000285750   0.000000000
C        0.249292022  -0.001415955  -0.000000000
C        0.499428500  -0.000285750  -0.000000000
C        0.750819180   0.001638359  -0.000000000
C       -0.001638359   0.249180820   0.000000000
C        0.078574973   0.163057779  -0.000000000
C        0.243374868   0.242202216   0.000000000
C        0.331979561   0.163959122  -0.000000000
C        0.498827348   0.242202216  -0.000000000
C        0.584482806   0.163057779  -0.000000000
C        0.750819180   0.249180820  -0.000000000
C        0.833333333   0.166666667   0.000000000
C        0.000285750   0.500571500   0.000000000
C        0.078574973   0.415517194   0.000000000
C        0.243374868   0.501172652   0.000000000
C        0.300758599   0.400379300  -0.000000000
Cl       0.500000000   0.500000000   0.000000000
C        0.599620700   0.400379300   0.000000000
C        0.757797784   0.501172652  -0.000000000
C        0.836942221   0.415517194   0.000000000
C        0.001415955   0.750707978  -0.000000000
C        0.083761010   0.667522021  -0.000000000
C        0.249292022   0.750707978  -0.000000000
C        0.331979561   0.668020439  -0.000000000
C        0.498827348   0.756625132   0.000000000
C        0.599620700   0.699241401  -0.000000000
C        0.757797784   0.756625132   0.000000000
C        0.836040878   0.668020439   0.000000000
C        0.083761010   0.916238990   0.000000000
C        0.332477979   0.916238990   0.000000000
C        0.584482806   0.921425027  -0.000000000
C        0.836942221   0.921425027   0.000000000
K_POINTS automatic 
  16 16 1   0 0 0 

