 &CONTROL
                 calculation = 'nscf' ,
                      outdir = './tmp/' ,
                  pseudo_dir = '/home/deleted/pseudo_psl' ,
                      prefix = 'GF_ip' ,
                   verbosity = 'high' ,
               etot_conv_thr = 1.0D-5 ,
               forc_conv_thr = 4.0D-4 ,
                       nstep = 1000 ,
                    dipfield = .true. ,
 /
 &SYSTEM
                       ibrav = 4,
                           A = 9.88 ,
                           C = 15 ,
                         nat = 33,
                        ntyp = 3,
                     ecutwfc = 40.424239707 ,
                     ecutrho = 404.24239707 ,
                 occupations = 'tetrahedra' ,
                     degauss = 0.01 ,
				   input_dft = 'vdW-DF' ,
    nspin = 2 ,
    starting_magnetization(1) = 0.5,
    starting_magnetization(2) = 0.5,
    starting_magnetization(3) = 0.5,
 /
 &ELECTRONS
            electron_maxstep = 50001,
                    conv_thr = 1.0D-6 ,
                 mixing_mode = 'local-TF' ,
                 mixing_beta = 0.5 ,
 /
ATOMIC_SPECIES
    C   12.01100  C.revpbe-n-kjpaw_psl.0.1.UPF 
    F   18.99800  F.revpbe-n-kjpaw_psl.0.1.UPF 
    O   15.99940  O.revpbe-n-kjpaw_psl.0.1.UPF 
ATOMIC_POSITIONS (crystal)
C        0.002648797   0.001326246   0.002265516
C        0.246505504  -0.006988993   0.005816180
C        0.498677449   0.001326246   0.002265516
C        0.753572861   0.007145722  -0.005215516
C        0.003776273   0.252091717   0.001160185
C        0.085778520   0.167583087   0.003200552
C        0.252615887   0.245989194   0.004877503
C        0.327897828   0.155795656   0.006158077
C        0.493373307   0.245989194   0.004877503
C        0.581804566   0.167583087   0.003200552
C        0.748315443   0.252091717   0.001160185
C        0.835628540   0.171257080  -0.001115206
C       -0.000725590   0.498548821   0.001935814
C        0.090337639   0.417320965   0.001663545
C        0.264885090   0.496530089   0.001174541
C        0.347810042   0.408072288   0.002831569
C        0.560262245   0.408072288   0.002831569
C        0.731645000   0.496530089   0.001174541
C        0.826983325   0.417320965   0.001663545
C       -0.003816515   0.745989420   0.003141610
C        0.081775913   0.663551827   0.003575311
C        0.249805934   0.745989420   0.003141610
C        0.338086948   0.664360885  -0.000669094
C        0.497045480   0.764027470  -0.005875887
F        0.591038991   0.682077983  -0.027920665
C        0.766981990   0.764027470  -0.005875887
C        0.826273935   0.664360885  -0.000669094
C        0.079819614   0.912058223   0.004226455
C        0.332238606   0.912058223   0.004226455
C        0.587156612   0.923770975  -0.004153186
C        0.836614362   0.923770975  -0.004153186
O        0.621089316   0.742178632   0.175030004
O        0.555597248   0.611194499   0.214049377
K_POINTS automatic 
  20 20 1   0 0 0 

