 &CONTROL
                 calculation = 'bands' ,
                      outdir = './tmp/' ,
                  pseudo_dir = '/home/deleted/pseudo_psl' ,
                      prefix = 'GI_op' ,
                   verbosity = 'high' ,
               etot_conv_thr = 1.0D-5 ,
               forc_conv_thr = 4.0D-4 ,
                       nstep = 1000 ,
                    dipfield = .true. ,
 /
 &SYSTEM
                       ibrav = 4,
                           A = 9.88 ,
                           C = 15 ,
                         nat = 33,
                        ntyp = 3,
                     ecutwfc = 40.424239707 ,
                     ecutrho = 404.24239707 ,
                 occupations = 'tetrahedra' ,
                     degauss = 0.01 ,
				   input_dft = 'vdW-DF' ,
    nspin = 2 ,
    starting_magnetization(1) = 0.5,
    starting_magnetization(2) = 0.5,
    starting_magnetization(3) = 0.5,
 /
 &ELECTRONS
            electron_maxstep = 50001,
                    conv_thr = 1.0D-6 ,
                 mixing_mode = 'local-TF' ,
                 mixing_beta = 0.5 ,
 /
ATOMIC_SPECIES
    C   12.01100  C.revpbe-n-kjpaw_psl.0.1.UPF 
    I  126.90400  I.revpbe-n-kjpaw_psl.0.2.UPF 
    O   15.99940  O.revpbe-n-kjpaw_psl.0.1.UPF 
ATOMIC_POSITIONS (crystal)
C       -0.001933537  -0.001163888  -0.004497791
C        0.244261562  -0.011476877  -0.004280162
C        0.500769649  -0.001163888  -0.004497791
C        0.756811827   0.013623652  -0.004903029
C        0.006831991   0.255322269  -0.005063300
C        0.084406683   0.166043857  -0.004525590
C        0.251407294   0.242942163  -0.004501140
C        0.325554024   0.151108050  -0.004079574
C        0.491534869   0.242942163  -0.004501140
C        0.581637173   0.166043857  -0.004525590
C        0.748490278   0.255322269  -0.005063300
C        0.838169323   0.176338648  -0.004917982
C        0.000301152   0.500602305  -0.006150569
C        0.095289614   0.420195520  -0.005886290
C        0.272802427   0.498172436  -0.006281566
C        0.351271374   0.405187357  -0.005403032
C        0.553915983   0.405187357  -0.005403032
C        0.725370009   0.498172436  -0.006281566
C        0.824905905   0.420195520  -0.005886290
C       -0.012977894   0.744540857  -0.005824253
C        0.082075740   0.664151479  -0.006127480
C        0.257518751   0.744540857  -0.005824253
C        0.356665766   0.666595217  -0.006329675
C        0.528276398   0.759703394  -0.004877312
I        0.588874802   0.677749603   0.207028717
C        0.731426995   0.759703394  -0.004877312
C        0.809929450   0.666595217  -0.006329675
C        0.075531188   0.909505048  -0.004713649
C        0.333973860   0.909505048  -0.004713649
C        0.590994891   0.922112472  -0.004810786
C        0.831117581   0.922112472  -0.004810786
O        0.620799738   0.741599474   0.487847616
O        0.561452766   0.622905533   0.440970947
K_POINTS automatic 
  20 20 1   0 0 0 

