 &CONTROL
                 calculation = 'nscf' ,
                      outdir = './tmp/' ,
                  pseudo_dir = '/home/deleted/pseudo_psl' ,
                      prefix = 'GI_op' ,
                   verbosity = 'high' ,
               etot_conv_thr = 1.0D-5 ,
               forc_conv_thr = 4.0D-4 ,
                       nstep = 1000 ,
                    dipfield = .true. ,
 /
 &SYSTEM
                       ibrav = 4,
                           A = 9.88 ,
                           C = 15 ,
                         nat = 34,
                        ntyp = 4,
                     ecutwfc = 40.424239707 ,
                     ecutrho = 404.24239707 ,
                 occupations = 'tetrahedra' ,
                     degauss = 0.01 ,
				   input_dft = 'vdW-DF' ,
    nspin = 2 ,
    starting_magnetization(1) = 0.5,
    starting_magnetization(2) = 0.5,
    starting_magnetization(3) = 0.5,
 /
 &ELECTRONS
            electron_maxstep = 50001,
                    conv_thr = 1.0D-6 ,
                 mixing_mode = 'local-TF' ,
                 mixing_beta = 0.5 ,
 /
ATOMIC_SPECIES
    C   12.01100  C.revpbe-n-kjpaw_psl.0.1.UPF 
    I  126.90400  I.revpbe-n-kjpaw_psl.0.2.UPF 
    O   15.99940  O.revpbe-n-kjpaw_psl.0.1.UPF 
    H   1.008000  H.revpbe-kjpaw_psl.0.1.UPF
ATOMIC_POSITIONS (crystal)
C        0.026464045   0.023440911  -0.002853150
C        0.272692043   0.013035866  -0.001855081
C        0.529384515   0.023444902  -0.002428360
C        0.785824540   0.039220672  -0.003369434
C        0.035883505   0.280312575  -0.003351620
C        0.113017527   0.190796636  -0.003033809
C        0.279930492   0.267349022  -0.002311301
C        0.353719448   0.175071356  -0.001810474
C        0.519778478   0.267355426  -0.001868349
C        0.610182606   0.190832431  -0.002225384
C        0.776841896   0.280340136  -0.002691366
C        0.866838940   0.201242792  -0.003345348
C        0.029058075   0.525718868  -0.002580565
C        0.124553404   0.445037701  -0.002937078
C        0.301928105   0.522630875  -0.002900809
C        0.380352363   0.429358317  -0.002441867
C        0.581366494   0.429377179  -0.002123104
C        0.753069933   0.522669309  -0.002301498
C        0.852870182   0.445049085  -0.002467230
C        0.014888681   0.769184634  -0.002206541
C        0.110377065   0.688448439  -0.002288701
C        0.286636964   0.769162090  -0.002462762
C        0.386464376   0.691547496  -0.003165472
C        0.558281051   0.784890303  -0.003362663
I        0.489538269   0.703438745   0.265896012
C        0.759072431   0.784914957  -0.002986306
C        0.837490584   0.691596362  -0.002478207
C        0.103584088   0.933913278  -0.002205920
C        0.362725558   0.933965618  -0.002072605
C        0.619773179   0.946883646  -0.003162545
C        0.859537916   0.946890715  -0.003214918
O       -0.063440679   0.102895157   0.215586156
O        0.038972822   0.242474805   0.219299267
H        0.391028001   0.745530132   0.193955241
K_POINTS automatic 
  20 20 1   0 0 0 

