 &CONTROL
                 calculation = 'scf' ,
                      outdir = './tmp_subs/' ,
                  pseudo_dir = '/home/deleted/pseudo_psl' ,
                      prefix = 'GI_op-subs' ,
                   verbosity = 'high' ,
               etot_conv_thr = 1.0D-5 ,
               forc_conv_thr = 4.0D-4 ,
                       nstep = 1000 ,
                    dipfield = .true. ,
 /
 &SYSTEM
                       ibrav = 4,
                           A = 9.88 ,
                           C = 15 ,
                         nat = 31,
                        ntyp = 2,
                     ecutwfc = 40.424239707 ,
                     ecutrho = 404.24239707 ,
                 occupations = 'smearing' ,
                     degauss = 0.01 ,
				   input_dft = 'vdW-DF' ,
    nspin = 2 ,
    starting_magnetization(1) = 0.5,
    starting_magnetization(2) = 0.5,
 /
 &ELECTRONS
            electron_maxstep = 50001,
                    conv_thr = 1.0D-6 ,
                 mixing_mode = 'local-TF' ,
                 mixing_beta = 0.5 ,
 /
ATOMIC_SPECIES
    C   12.01100  C.revpbe-n-kjpaw_psl.0.1.UPF 
    I  126.90400  I.revpbe-n-kjpaw_psl.0.2.UPF 
ATOMIC_POSITIONS (crystal)
C        0.000677856   0.001608948  -0.001644448
C        0.246966968  -0.008753348  -0.001408293
C        0.503548672   0.001562520  -0.001843910
C        0.759643486   0.016827585  -0.002049973
C        0.009792114   0.258323594  -0.001505615
C        0.087127004   0.168894781  -0.001419569
C        0.254094384   0.245605416  -0.001436947
C        0.328084723   0.153558629  -0.001275666
C        0.494074298   0.245518781  -0.001496770
C        0.584339233   0.168795272  -0.001505003
C        0.751070236   0.258232737  -0.001529809
C        0.840860735   0.179146329  -0.001552475
C        0.003113300   0.503681295  -0.001945692
C        0.098263901   0.423113940  -0.001830999
C        0.275855531   0.501065388  -0.002242551
C        0.354070550   0.407695571  -0.001890353
C        0.556219230   0.407596697  -0.002013389
C        0.727633773   0.500849786  -0.002174132
C        0.827340729   0.423080332  -0.001810184
C       -0.010465202   0.747453622  -0.002010127
C        0.084729965   0.666879431  -0.002128260
C        0.260461166   0.747394310  -0.002304734
C        0.360007740   0.669683636  -0.002684446
C        0.531631791   0.762899900  -0.002450875
I        0.512192608   0.565971240   0.243805384
C        0.733947141   0.762915827  -0.002718393
C        0.812026203   0.669718965  -0.002392695
C        0.078024402   0.912192744  -0.001600603
C        0.336744657   0.912168443  -0.001818380
C        0.593820734   0.925056991  -0.002423233
C        0.833755610   0.924894291  -0.002224219
K_POINTS automatic 
  16 16 1   0 0 0 

