 &CONTROL
                 calculation = 'bands' ,
                      outdir = './tmp/' ,
                  pseudo_dir = '/home/deleted/pseudo_psl' ,
                      prefix = 'GF_ip' ,
                   verbosity = 'high' ,
               etot_conv_thr = 1.0D-5 ,
               forc_conv_thr = 4.0D-4 ,
                       nstep = 1000 ,
                    dipfield = .true. ,
 /
 &SYSTEM
                       ibrav = 4,
                           A = 9.88 ,
                           C = 15 ,
                         nat = 32,
                        ntyp = 3,
                     ecutwfc = 40.424239707 ,
                     ecutrho = 404.24239707 ,
                 occupations = 'tetrahedra' ,
                     degauss = 0.01 ,
				   input_dft = 'vdW-DF' ,
 /
 &ELECTRONS
            electron_maxstep = 50001,
                    conv_thr = 1.0D-6 ,
                 mixing_mode = 'local-TF' ,
                 mixing_beta = 0.5 ,
 /
ATOMIC_SPECIES
    C   12.01100  C.revpbe-n-kjpaw_psl.0.1.UPF 
    F   18.99800  F.revpbe-n-kjpaw_psl.0.1.UPF 
    O   15.99940  O.revpbe-n-kjpaw_psl.0.1.UPF 
ATOMIC_POSITIONS crystal 
C       -0.004556654   0.001851416   0.003379036
C        0.244291392   0.000212111   0.011021562
C        0.494939837   0.002174397   0.008782950
C        0.746576285   0.004226545  -0.003117508
C       -0.003512252   0.252846010   0.005330029
C        0.077736448   0.168120438   0.008614331
C        0.244075178   0.249024062   0.012450541
C        0.326726792   0.164947598   0.011419426
C        0.493416195   0.249225989   0.008220524
C        0.578560321   0.168200680   0.005328752
C        0.744782355   0.252546535   0.003909892
C        0.829086674   0.169352289   0.001530487
C       -0.004880177   0.501894268   0.007511475
C        0.081082044   0.419019075   0.009843127
C        0.249673638   0.501426667   0.016038255
C        0.327607719   0.413000920   0.014625998
C        0.573906549   0.413162437   0.005769965
C        0.740096514   0.501365212  -0.002438220
C        0.826509550   0.418779001   0.002919957
C       -0.006345323   0.751447969   0.005809154
C        0.077759933   0.667822169   0.011095907
C        0.245385112   0.751320563   0.014759001
C        0.333456113   0.670489265   0.019381423
C        0.495482466   0.759811652   0.026015674
F        0.644147217   0.700565036  -0.097162370
C        0.760090050   0.761227583  -0.033090528
C        0.827639956   0.669683109  -0.008972360
C        0.077648550   0.917690222   0.006966817
C        0.328596128   0.917507137   0.012641360
C        0.579476332   0.919078997   0.008957755
C        0.830845973   0.921676233  -0.011889572
O        0.489699077   0.490304423   0.014347161
K_POINTS crystal_b 
4
0.0000000000    0.0000000000    0.0000000000 17
0.0000000000    0.5000000000    0.0000000000 10
0.3333333333    0.3333333333    0.0000000000 20
0.0000000000    0.0000000000    0.0000000000 1

