 &CONTROL
                 calculation = 'bands' ,
                      outdir = './tmp/' ,
                  pseudo_dir = '/home/deleted/pseudo_psl' ,
                      prefix = 'GF_ip' ,
                    dipfield = .true. ,
                   verbosity = 'high',
                       nstep = 1000,
               forc_conv_thr = 4.0D-4,
               etot_conv_thr = 1.0D-5
 /
 &SYSTEM
                       ibrav = 4,
                           A = 9.88 ,
                           C = 15 ,
                         nat = 31,
                        ntyp = 2,
                     ecutwfc = 40.424239707 ,
                     ecutrho = 404.24239707 ,
                 occupations = 'tetrahedra' ,
                     degauss = 0.01 ,
				   input_dft = 'vdW-DF' ,
 /
 &ELECTRONS
            electron_maxstep = 50001,
                    conv_thr = 1.0D-6 ,
                 mixing_mode = 'local-TF' ,
                 mixing_beta = 0.5 ,
 /
ATOMIC_SPECIES
    C   12.01100  C.revpbe-n-kjpaw_psl.0.1.UPF 
    F   18.99800  F.revpbe-n-kjpaw_psl.0.1.UPF 
ATOMIC_POSITIONS crystal 
C       -0.001656655  -0.001050972   0.000000000
C        0.239389512  -0.021220975   0.000000000
C        0.500605683  -0.001050972   0.000000000
C        0.749755500  -0.000488999   0.000000000
C       -0.002972325   0.251039599   0.000000000
C        0.077225392   0.164983928   0.000000000
C        0.232471735   0.274924189   0.000000000
F        0.318643472   0.137286944   0.000000000
C        0.542452454   0.274924189   0.000000000
C        0.587758535   0.164983928   0.000000000
C        0.754011924   0.251039599   0.000000000
C        0.832933950   0.165867901   0.000000000
C        0.000467543   0.500935085   0.000000000
C        0.081698883   0.418118335   0.000000000
C        0.247846399   0.505346871   0.000000000
C        0.323942933   0.419098763   0.000000000
C        0.595155830   0.419098763   0.000000000
C        0.757500472   0.505346871   0.000000000
C        0.836419452   0.418118335   0.000000000
C       -0.001272522   0.747911063   0.000000000
C        0.083042949   0.666085899   0.000000000
C        0.249183585   0.747911063   0.000000000
C        0.332578186   0.668276086   0.000000000
C        0.500167717   0.747332053   0.000000000
C        0.584509737   0.669019476   0.000000000
C        0.747164336   0.747332053   0.000000000
C        0.835697899   0.668276086   0.000000000
C        0.079713420   0.912651966   0.000000000
C        0.332938545   0.912651966   0.000000000
C        0.583503029   0.915958790   0.000000000
C        0.832455760   0.915958790   0.000000000
K_POINTS crystal_b 
4
0.0000000000    0.0000000000    0.0000000000 17
0.0000000000    0.5000000000    0.0000000000 10
0.3333333333    0.3333333333    0.0000000000 20
0.0000000000    0.0000000000    0.0000000000 1

