 &CONTROL
                 calculation = 'nscf' ,
                      outdir = './tmp/' ,
                  pseudo_dir = '/home/deleted/pseudo_psl' ,
                      prefix = 'GI_op' ,
                   verbosity = 'high' ,
               etot_conv_thr = 1.0D-5 ,
               forc_conv_thr = 4.0D-4 ,
                       nstep = 1000 ,
                    dipfield = .true. ,
 /
 &SYSTEM
                       ibrav = 4,
                           A = 9.88 ,
                           C = 15 ,
                         nat = 33,
                        ntyp = 3,
                     ecutwfc = 40.424239707 ,
                     ecutrho = 404.24239707 ,
                 occupations = 'tetrahedra' ,
                     degauss = 0.01 ,
				   input_dft = 'vdW-DF' ,
 /
 &ELECTRONS
            electron_maxstep = 50001,
                    conv_thr = 1.0D-6 ,
                 mixing_mode = 'local-TF' ,
                 mixing_beta = 0.5 ,
 /
ATOMIC_SPECIES
    C   12.01100  C.revpbe-n-kjpaw_psl.0.1.UPF 
    I  126.90400  I.revpbe-n-kjpaw_psl.0.2.UPF 
    O   15.99940  O.revpbe-n-kjpaw_psl.0.1.UPF 
ATOMIC_POSITIONS crystal 
C       -0.007824235  -0.010990274  -0.002997034
C        0.238452744  -0.021369636  -0.002350084
C        0.495038911  -0.011000738  -0.003256076
C        0.751195036   0.004290680  -0.004130570
C        0.001226445   0.245664603  -0.002623949
C        0.078574356   0.156239481  -0.002608757
C        0.245556987   0.232975641  -0.002305441
C        0.319588110   0.140948020  -0.002151473
C        0.485571135   0.232891731  -0.002100013
C        0.575833943   0.156204115  -0.002556713
C        0.742608872   0.245662647  -0.002543745
C        0.832390120   0.166617966  -0.003154040
C       -0.005349180   0.490988661  -0.002297829
C        0.089745110   0.410468812  -0.002388181
C        0.267460703   0.488335223  -0.002693867
C        0.345520578   0.395038501  -0.002508221
C        0.547667275   0.395059671  -0.002155839
C        0.719017990   0.488234831  -0.002222486
C        0.818883002   0.410451319  -0.002133754
C       -0.018959873   0.734830867  -0.002589243
C        0.076312711   0.654286151  -0.002525714
C        0.252013776   0.734761556  -0.002935813
C        0.351779396   0.657043057  -0.003493445
C        0.523211175   0.750207721  -0.004145121
I        0.681586852   0.914525959   0.252437294
C        0.725196401   0.750253650  -0.003894690
C        0.803429004   0.657104345  -0.002835818
C        0.069526795   0.899597046  -0.002589375
C        0.328283160   0.899614503  -0.002776182
C        0.585299058   0.912363972  -0.004277399
C        0.825238586   0.912344706  -0.003930010
O        0.533693214   0.660296306   0.190892733
O        0.388898505   0.579392243   0.208507520
K_POINTS automatic 
  20 20 1   0 0 0 

