 &CONTROL
                 calculation = 'scf' ,
                      outdir = './tmp/' ,
                  pseudo_dir = '/home/deleted/pseudo_psl' ,
                      prefix = 'GF_op' ,
                   verbosity = 'high' ,
               etot_conv_thr = 1.0D-5 ,
               forc_conv_thr = 4.0D-4 ,
                       nstep = 1000 ,
                    dipfield = .true. ,
 /
 &SYSTEM
                       ibrav = 4,
                           A = 9.88 ,
                           C = 15 ,
                         nat = 34,
                        ntyp = 4,
                     ecutwfc = 40.424239707 ,
                     ecutrho = 404.24239707 ,
                 occupations = 'smearing' ,
                     degauss = 0.01 ,
				   input_dft = 'vdW-DF' ,
    nspin = 2 ,
    starting_magnetization(1) = 0.5,
    starting_magnetization(2) = 0.5,
    starting_magnetization(3) = 0.5,
 /
 &ELECTRONS
            electron_maxstep = 50001,
                    conv_thr = 1.0D-6 ,
                 mixing_mode = 'local-TF' ,
                 mixing_beta = 0.5 ,
 /
ATOMIC_SPECIES
    C   12.01100  C.revpbe-n-kjpaw_psl.0.1.UPF 
    F   18.99800  F.revpbe-n-kjpaw_psl.0.1.UPF 
    O   15.99940  O.revpbe-n-kjpaw_psl.0.1.UPF 
    H   1.008000  H.revpbe-kjpaw_psl.0.1.UPF
ATOMIC_POSITIONS (crystal)
C        0.001815412   0.004671234   0.008062037
C        0.250800048   0.002033816   0.015097256
C        0.500710223   0.006101039   0.020155249
C        0.748752076   0.005387842   0.009591153
C        0.002143148   0.255655404   0.007858889
C        0.084483268   0.172378957   0.011431853
C        0.252434196   0.255835076   0.013466086
C        0.333722527   0.168248876   0.017239014
C        0.496278586   0.251782250   0.022053780
C        0.582800221   0.172500512   0.016172282
C        0.749319657   0.255583813   0.012624669
C        0.832833692   0.172954391   0.008460596
C        0.001353389   0.505042080   0.007311703
C        0.087356749   0.421953136   0.010334374
C        0.258963042   0.504475623   0.018745110
C        0.340293008   0.417770962   0.012333518
C        0.575450679   0.421025189   0.039058868
C        0.746414737   0.506569031   0.003975342
C        0.830873062   0.423897326   0.006948560
C        0.001900322   0.754602202   0.004258432
C        0.084500469   0.670586334   0.009712520
C        0.251250862   0.752369040   0.019496664
C        0.333456436   0.670575939   0.029348118
C        0.497103155   0.762820212   0.058067354
F        0.622459603   0.691256876  -0.063263323
C        0.765951473   0.764432674  -0.023199164
C        0.835004904   0.672038863  -0.006452503
C        0.083883871   0.920425534   0.008174857
C        0.333865681   0.920681269   0.020836790
C        0.585913164   0.925823965   0.025046391
C        0.835528277   0.923040195  -0.002100083
O        0.574002299   0.453685461   0.129434581
O        0.557237023   0.713848908   0.113315898
H        0.573707895   0.553541161   0.135222368
K_POINTS automatic 
  16 16 1   0 0 0 

