 &CONTROL
                 calculation = 'bands' ,
                      outdir = './tmp/' ,
                  pseudo_dir = '/home/deleted/pseudo_psl' ,
                      prefix = 'GI_op' ,
                   verbosity = 'high' ,
               etot_conv_thr = 1.0D-5 ,
               forc_conv_thr = 4.0D-4 ,
                       nstep = 1000 ,
                    dipfield = .true. ,
 /
 &SYSTEM
                       ibrav = 4,
                           A = 9.88 ,
                           C = 15 ,
                         nat = 34,
                        ntyp = 4,
                     ecutwfc = 40.424239707 ,
                     ecutrho = 404.24239707 ,
                 occupations = 'tetrahedra' ,
                     degauss = 0.01 ,
				   input_dft = 'vdW-DF' ,
    nspin = 2 ,
    starting_magnetization(1) = 0.5,
    starting_magnetization(2) = 0.5,
    starting_magnetization(3) = 0.5,
 /
 &ELECTRONS
            electron_maxstep = 50001,
                    conv_thr = 1.0D-6 ,
                 mixing_mode = 'local-TF' ,
                 mixing_beta = 0.5 ,
 /
ATOMIC_SPECIES
    C   12.01100  C.revpbe-n-kjpaw_psl.0.1.UPF 
    I  126.90400  I.revpbe-n-kjpaw_psl.0.2.UPF 
    O   15.99940  O.revpbe-n-kjpaw_psl.0.1.UPF 
    H   1.008000  H.revpbe-kjpaw_psl.0.1.UPF
ATOMIC_POSITIONS (crystal)
C        0.006384794   0.017112965   0.000482845
C        0.252505352   0.006704751   0.000233296
C        0.508975565   0.017078440   0.000842935
C        0.764990936   0.031777403   0.000704648
C        0.014995117   0.273473004   0.000180837
C        0.092632302   0.184215497   0.000214935
C        0.259589099   0.261042420  -0.000368204
C        0.333803744   0.169329210  -0.000187724
C        0.499652080   0.261030770  -0.000291985
C        0.589784926   0.184200081   0.000506904
C        0.756675829   0.273488931   0.000317738
C        0.846362860   0.194524930   0.000624090
C        0.008451132   0.518733549  -0.000672543
C        0.103380311   0.438346815  -0.000615815
C        0.281072299   0.516348229  -0.001240014
C        0.359354878   0.423305689  -0.000870484
C        0.562088245   0.423322330  -0.000785354
C        0.733439171   0.516392642  -0.001057854
C        0.833135900   0.438367862  -0.000532612
C       -0.004586996   0.762881040  -0.000370914
C        0.090349398   0.682499988  -0.000587569
C        0.265671584   0.762808943  -0.000372840
C        0.365023066   0.684788249  -0.001022010
C        0.536467170   0.777867340   0.000336954
I        0.580366263   0.687752446   0.221012721
C        0.739697288   0.777947285   0.000160721
C        0.817951656   0.684891520  -0.000892813
C        0.083924570   0.927798194   0.000248432
C        0.342117126   0.927753911   0.000428036
C        0.599150418   0.940286953   0.000734218
C        0.839382379   0.940292995   0.000481380
O        0.465204059   0.294856871   0.221813357
O        0.310501763   0.209558812   0.205304178
H        0.490424332   0.408114962   0.225187707
K_POINTS automatic 
  20 20 1   0 0 0 

