 &CONTROL
                 calculation = 'scf' ,
                      outdir = './tmp/' ,
                  pseudo_dir = '/home/deleted/pseudo_psl' ,
                      prefix = 'GF_ip' ,
                   verbosity = 'high' ,
               etot_conv_thr = 1.0D-5 ,
               forc_conv_thr = 4.0D-4 ,
                       nstep = 1000 ,
                    dipfield = .true. ,
 /
 &SYSTEM
                       ibrav = 4,
                           A = 9.88 ,
                           C = 15 ,
                         nat = 34,
                        ntyp = 4,
                     ecutwfc = 40.424239707 ,
                     ecutrho = 404.24239707 ,
                 occupations = 'smearing' ,
                     degauss = 0.01 ,
				   input_dft = 'vdW-DF' ,
 /
 &ELECTRONS
            electron_maxstep = 50001,
                    conv_thr = 1.0D-6 ,
                 mixing_mode = 'local-TF' ,
                 mixing_beta = 0.5 ,
 /
ATOMIC_SPECIES
    C   12.01100  C.revpbe-n-kjpaw_psl.0.1.UPF 
    F   18.99800  F.revpbe-n-kjpaw_psl.0.1.UPF 
    O   15.99940  O.revpbe-n-kjpaw_psl.0.1.UPF 
    H   1.008000  H.revpbe-kjpaw_psl.0.1.UPF
ATOMIC_POSITIONS crystal 
C       -0.000947157   0.008324399  -0.007807656
C        0.249248586   0.009811507  -0.000403049
C        0.498389992   0.009858891   0.004778525
C        0.747202998   0.006818531  -0.002347239
C       -0.001709005   0.257547236   0.003672312
C        0.080980539   0.173678454   0.004937278
C        0.245517339   0.254506464   0.017084711
C        0.331590441   0.176372862   0.002992286
C        0.499555632   0.260789089  -0.010239055
C        0.582471069   0.175829061  -0.005855646
C        0.748645394   0.258559200  -0.006578844
C        0.832034223   0.173986529  -0.002405757
C       -0.000050045   0.508814346  -0.002827011
C        0.083029561   0.425743938   0.009372021
C        0.245159444   0.508256862   0.032645370
C        0.314528503   0.410620232   0.056796165
C        0.585115862   0.419197979  -0.030399428
C        0.747843876   0.506382133  -0.027755657
C        0.833150280   0.424926391  -0.012827370
C        0.000349642   0.759192523  -0.012760456
C        0.083032618   0.675469694  -0.001641794
C        0.248642403   0.759225298   0.011126779
C        0.329498248   0.676718654   0.033778706
C        0.495790705   0.772253605   0.050462202
F        0.618101654   0.697141662  -0.078897415
C        0.764608582   0.767467831  -0.042893538
C        0.835877507   0.676715939  -0.030841485
C        0.082364155   0.925491699  -0.007075766
C        0.331856000   0.926206286   0.005293127
C        0.581648073   0.928029469   0.014384567
C        0.833082121   0.926022214  -0.018161243
O        0.412943367   0.446812714   0.119925329
O        0.576691416   0.727393722   0.099838344
H        0.506863944   0.609384665   0.119819030
K_POINTS automatic 
  16 16 1   0 0 0 

