 &CONTROL
                 calculation = 'relax' ,
                      outdir = './tmp/' ,
                  pseudo_dir = '/home/deleted/pseudo_psl' ,
                      prefix = 'GF_ip' ,
                   verbosity = 'high' ,
               etot_conv_thr = 1.0D-5 ,
               forc_conv_thr = 4.0D-4 ,
                       nstep = 1000 ,
                    dipfield = .true. ,
 /
 &SYSTEM
                       ibrav = 4,
                           A = 9.88 ,
                           C = 15 ,
                         nat = 34,
                        ntyp = 4,
                     ecutwfc = 40.424239707 ,
                     ecutrho = 404.24239707 ,
                 occupations = 'smearing' ,
                     degauss = 0.01 ,
				   input_dft = 'vdW-DF' ,
 /
 &ELECTRONS
            electron_maxstep = 50001,
                    conv_thr = 1.0D-6 ,
                 mixing_mode = 'local-TF' ,
                 mixing_beta = 0.5 ,
 /
 &IONS
                ion_dynamics = 'bfgs' ,
 /
ATOMIC_SPECIES
    C   12.01100  C.revpbe-n-kjpaw_psl.0.1.UPF 
    F   18.99800  F.revpbe-n-kjpaw_psl.0.1.UPF 
    O   15.99940  O.revpbe-n-kjpaw_psl.0.1.UPF 
    H   1.008000  H.revpbe-kjpaw_psl.0.1.UPF
ATOMIC_POSITIONS crystal 
C        0.002643322   0.006674613  -0.007493376
C        0.253391802   0.008199771  -0.001749910
C        0.503709588   0.009506223   0.003099346
C        0.750705105   0.006423130  -0.004820651
C        0.002450898   0.257257422   0.002660793
C        0.085426624   0.172606724   0.003924164
C        0.249701930   0.253349989   0.014066665
C        0.335264388   0.175328358   0.001221458
C        0.503569783   0.259496267  -0.009888347
C        0.586966372   0.175194202  -0.007631636
C        0.753154854   0.258099956  -0.008527178
C        0.836655781   0.174129744  -0.005252779
C        0.003667343   0.507907473  -0.002523362
C        0.086121259   0.424992801   0.009342044
C        0.248670458   0.509279432   0.033105255
C        0.318695948   0.410064164   0.058546789
C        0.591443009   0.418203689  -0.025606280
C        0.752708753   0.506443765  -0.025158530
C        0.837492348   0.424264102  -0.012564539
C        0.004197285   0.758228847  -0.012113931
C        0.086693870   0.674564837  -0.001390485
C        0.251760057   0.757541700   0.011042853
C        0.330556645   0.673712125   0.033899797
C        0.500899792   0.772972842   0.056907894
F        0.615536928   0.689713866  -0.068040343
C        0.766339785   0.764848381  -0.037731447
C        0.839782027   0.675972903  -0.027975124
C        0.086302797   0.924287021  -0.007194173
C        0.336029401   0.925130234   0.004665540
C        0.587345920   0.928856191   0.010885214
C        0.836460640   0.924187936  -0.016565923
O        0.407035873   0.438310306   0.122438728
O        0.567749788   0.743606229   0.116421474
H        0.403977595   0.634194835   0.085188346
K_POINTS automatic 
  4 4 1   0 0 0 

