 &CONTROL
                 calculation = 'scf' ,
                      outdir = './tmp/' ,
                  pseudo_dir = '/home/deleted/pseudo_psl' ,
                      prefix = 'GI_ip' ,
                   verbosity = 'high' ,
               etot_conv_thr = 1.0D-5 ,
               forc_conv_thr = 4.0D-4 ,
                       nstep = 1000 ,
                    dipfield = .true. ,
 /
 &SYSTEM
                       ibrav = 4,
                           A = 9.88 ,
                           C = 15 ,
                         nat = 34,
                        ntyp = 4,
                     ecutwfc = 40.424239707 ,
                     ecutrho = 404.24239707 ,
                 occupations = 'smearing' ,
                     degauss = 0.01 ,
				   input_dft = 'vdW-DF' ,
    nspin = 2 ,
    starting_magnetization(1) = 0.5,
    starting_magnetization(2) = 0.5,
    starting_magnetization(3) = 0.5,
 /
 &ELECTRONS
            electron_maxstep = 50001,
                    conv_thr = 1.0D-6 ,
                 mixing_mode = 'local-TF' ,
                 mixing_beta = 0.5 ,
 /
ATOMIC_SPECIES
    C   12.01100  C.revpbe-n-kjpaw_psl.0.1.UPF 
    I  126.90400  I.revpbe-n-kjpaw_psl.0.2.UPF 
    O   15.99940  O.revpbe-n-kjpaw_psl.0.1.UPF 
    H   1.008000  H.revpbe-kjpaw_psl.0.1.UPF
ATOMIC_POSITIONS (crystal)
C        0.005297981   0.010995039  -0.002162306
C        0.257969177   0.018192996   0.001258726
C        0.503468920   0.010835668  -0.002544737
C        0.751574627   0.005462330  -0.011857475
C        0.001077676   0.257567518   0.004108760
C        0.087040459   0.178017174  -0.002764914
C        0.253864736   0.264741655  -0.014147052
C        0.340488427   0.183350135  -0.012152816
C        0.508609447   0.264654763  -0.013315982
C        0.588724780   0.177855561  -0.002230949
C        0.754201611   0.257473825   0.004845640
C        0.834222702   0.170687229   0.001236569
C        0.004129392   0.510357988   0.019211150
C        0.081716914   0.424254363   0.010847920
C        0.243242226   0.509219511  -0.005305380
C        0.318529514   0.427610882  -0.024372431
C        0.606532941   0.427600410  -0.021919742
C        0.763240801   0.509113907  -0.002544158
C        0.840178782   0.424117065   0.012341313
C        0.010455993   0.764699181   0.012536203
C        0.088151042   0.678467791   0.019370426
C        0.251900822   0.764525980   0.011194913
C        0.328408744   0.679517266  -0.004914585
C        0.485686044   0.761019980  -0.023126769
I        0.546609832   0.594630967  -0.066960221
C        0.773130406   0.761139810  -0.021436036
C        0.848451110   0.679634344  -0.002315428
C        0.091095600   0.931333977   0.004969090
C        0.337915968   0.931288762   0.004399414
C        0.583662442   0.924191684  -0.013627884
C        0.838369408   0.924221312  -0.012987328
O        0.420444847   0.564625352   0.175420998
O        0.565647702   0.621143689   0.128629471
H        0.448629266   0.644311020   0.221692190
K_POINTS automatic 
  16 16 1   0 0 0 

