&PROJWFC
  outdir = './tmp',
  prefix = 'C',
  filpdos = 'C-pdos',
  ngauss = 1,
  degauss = 0.01,
  DeltaE = 0.01,
  lsym = .true.
/
