 &CONTROL
                 calculation = 'relax' ,
                      outdir = './tmp/' ,
                  pseudo_dir = '/home/deleted/pseudo_psl' ,
                      prefix = 'GBr_op' ,
                   verbosity = 'high' ,
               etot_conv_thr = 1.0D-5 ,
               forc_conv_thr = 4.0D-4 ,
                       nstep = 1000 ,
                    dipfield = .true. ,
 /
 &SYSTEM
                       ibrav = 4,
                           A = 9.88 ,
                           C = 15 ,
                         nat = 34,
                        ntyp = 4,
                     ecutwfc = 40.424239707 ,
                     ecutrho = 404.24239707 ,
                 occupations = 'smearing' ,
                     degauss = 0.01 ,
				   input_dft = 'vdW-DF' ,
 /
 &ELECTRONS
            electron_maxstep = 50001,
                    conv_thr = 1.0D-6 ,
                 mixing_mode = 'local-TF' ,
                 mixing_beta = 0.5 ,
 /
 &IONS
                ion_dynamics = 'bfgs' ,
 /
ATOMIC_SPECIES
    C   12.01100  C.revpbe-n-kjpaw_psl.0.1.UPF 
   Br   79.90350  Br.revpbe-n-kjpaw_psl.0.2.UPF 
    O   15.99940  O.revpbe-n-kjpaw_psl.0.1.UPF 
    H   1.008000  H.revpbe-kjpaw_psl.0.1.UPF
ATOMIC_POSITIONS crystal 
C       -0.002572470  -0.002300796  -0.002704558
C        0.243653181  -0.012693637  -0.002637615
C        0.500271674  -0.002300796  -0.002704558
C        0.756477637   0.012955273  -0.002980669
C        0.006501798   0.254346318  -0.002380098
C        0.083820594   0.164906430  -0.002474478
C        0.250799009   0.241622468  -0.002640035
C        0.324795183   0.149590369  -0.002600937
C        0.490823460   0.241622468  -0.002640035
C        0.581085836   0.164906430  -0.002474478
C        0.747844521   0.254346318  -0.002380098
C        0.837625849   0.175251701  -0.002402333
C       -0.000161020   0.499677962  -0.002866479
C        0.094994385   0.419106224  -0.002697587
C        0.272567468   0.496915804  -0.003070617
C        0.350751216   0.403693490  -0.002916541
C        0.552942273   0.403693490  -0.002916541
C        0.724348336   0.496915804  -0.003070617
C        0.824111839   0.419106224  -0.002697587
C       -0.013760053   0.743437892  -0.003159490
C        0.081441639   0.662883279  -0.003148082
C        0.257197946   0.743437892  -0.003159490
C        0.356817300   0.665651235  -0.003403651
C        0.528261145   0.758952935  -0.003350176
Br       0.616177483   0.732354967   0.213664064
C        0.730691790   0.758952935  -0.003350176
C        0.808833934   0.665651235  -0.003403651
C        0.074735744   0.908228572  -0.002781908
C        0.333492828   0.908228572  -0.002781908
C        0.590556815   0.921081877  -0.003163937
C        0.830525061   0.921081877  -0.003163937
O        0.626956516   0.753913033   0.361983754
O        0.565337092   0.630674184   0.407108417
H        0.685589523   0.647572249   0.384546085
K_POINTS automatic 
  4 4 1   0 0 0 

