 &CONTROL
                 calculation = 'scf' ,
                      outdir = './tmp/' ,
                  pseudo_dir = '/home/deleted/pseudo_psl' ,
                      prefix = 'GBr_op' ,
                   verbosity = 'high' ,
               etot_conv_thr = 1.0D-5 ,
               forc_conv_thr = 4.0D-4 ,
                       nstep = 1000 ,
                    dipfield = .true. ,
 /
 &SYSTEM
                       ibrav = 4,
                           A = 9.88 ,
                           C = 15 ,
                         nat = 34,
                        ntyp = 4,
                     ecutwfc = 40.424239707 ,
                     ecutrho = 404.24239707 ,
                 occupations = 'smearing' ,
                     degauss = 0.01 ,
				   input_dft = 'vdW-DF' ,
 /
 &ELECTRONS
            electron_maxstep = 50001,
                    conv_thr = 1.0D-6 ,
                 mixing_mode = 'local-TF' ,
                 mixing_beta = 0.5 ,
 /
ATOMIC_SPECIES
    C   12.01100  C.revpbe-n-kjpaw_psl.0.1.UPF 
   Br   79.90350  Br.revpbe-n-kjpaw_psl.0.2.UPF 
    O   15.99940  O.revpbe-n-kjpaw_psl.0.1.UPF 
    H   1.008000  H.revpbe-kjpaw_psl.0.1.UPF
ATOMIC_POSITIONS crystal 
C       -0.002390267  -0.002130514  -0.001306041
C        0.243893388  -0.012429720  -0.000881439
C        0.500469374  -0.002138191  -0.001529957
C        0.756791301   0.013374133  -0.002245955
C        0.006856704   0.254611409  -0.001112801
C        0.084091745   0.165217298  -0.001038030
C        0.251030300   0.241874140  -0.000772428
C        0.324949684   0.149684297  -0.000780897
C        0.491052991   0.241867023  -0.000851386
C        0.581338975   0.165207933  -0.001194961
C        0.747974052   0.254607506  -0.001205458
C        0.837854771   0.175489701  -0.001534559
C        0.000146835   0.500065290  -0.001025432
C        0.095380981   0.419359318  -0.000986948
C        0.272576462   0.497074543  -0.001087618
C        0.350950938   0.403860987  -0.000821865
C        0.553105196   0.403854842  -0.000835511
C        0.724700941   0.497064980  -0.001044404
C        0.824199273   0.419356377  -0.001003507
C       -0.013785760   0.743575558  -0.001209620
C        0.081537432   0.662853660  -0.001163783
C        0.257574514   0.743568643  -0.001354045
C        0.356823192   0.665850048  -0.001531220
C        0.528638837   0.759209871  -0.001585807
Br       0.615795668   0.741576665   0.206642974
C        0.730770651   0.759217991  -0.001447038
C        0.809221436   0.665860241  -0.001359501
C        0.074809630   0.908418029  -0.001030738
C        0.333822515   0.908415122  -0.001189626
C        0.590845676   0.921365263  -0.002121399
C        0.830726273   0.921362727  -0.001930475
O        0.619548166   0.766778689   0.338356970
O        0.575676132   0.622876493   0.383657724
H        0.676557526   0.626663928   0.389704835
K_POINTS automatic 
  16 16 1   0 0 0 

