 &CONTROL
                 calculation = 'nscf' ,
                      outdir = './tmp/' ,
                  pseudo_dir = '/home/deleted/pseudo_psl' ,
                      prefix = 'GBr_ip' ,
                   verbosity = 'high' ,
               etot_conv_thr = 1.0D-5 ,
               forc_conv_thr = 4.0D-4 ,
                       nstep = 1000 ,
                    dipfield = .true. ,
 /
 &SYSTEM
                       ibrav = 4,
                           A = 9.88 ,
                           C = 15 ,
                         nat = 34,
                        ntyp = 4,
                     ecutwfc = 40.424239707 ,
                     ecutrho = 404.24239707 ,
                 occupations = 'tetrahedra' ,
                     degauss = 0.01 ,
				   input_dft = 'vdW-DF' ,
    nspin = 2 ,
    starting_magnetization(1) = 0.5,
    starting_magnetization(2) = 0.5,
    starting_magnetization(3) = 0.5,
 /
 &ELECTRONS
            electron_maxstep = 50001,
                    conv_thr = 1.0D-6 ,
                 mixing_mode = 'local-TF' ,
                 mixing_beta = 0.5 ,
 /
ATOMIC_SPECIES
    C   12.01100  C.revpbe-n-kjpaw_psl.0.1.UPF 
   Br   79.90350  Br.revpbe-n-kjpaw_psl.0.2.UPF 
    O   15.99940  O.revpbe-n-kjpaw_psl.0.1.UPF 
    H   1.008000  H.revpbe-kjpaw_psl.0.1.UPF
ATOMIC_POSITIONS (crystal)
C        0.002528318   0.001035141   0.000507719
C        0.255149338   0.007875244   0.004053345
C        0.500908051   0.001091380   0.000704242
C        0.749072733  -0.004280822  -0.005994909
C       -0.001256487   0.248017481   0.006493364
C        0.084545047   0.168275976   0.001188995
C        0.252403576   0.255494612  -0.006431723
C        0.338050970   0.173626693  -0.005663879
C        0.505508200   0.255463203  -0.007880632
C        0.586156637   0.168336673   0.000072654
C        0.751698278   0.248080787   0.005390447
C        0.831926169   0.161453438   0.003793187
C        0.001409868   0.500613489   0.016679548
C        0.079320482   0.414643085   0.012021039
C        0.242430302   0.499694234   0.001331421
C        0.319121493   0.418883452  -0.013432191
C        0.602195441   0.418681825  -0.016493297
C        0.759842969   0.499663560  -0.001955450
C        0.837731595   0.414765044   0.010213585
C        0.007592525   0.754507561   0.010468042
C        0.085455520   0.668678399   0.016734523
C        0.249322438   0.754656143   0.011952197
C        0.327362641   0.669580588   0.001239503
C        0.484829959   0.750421950  -0.013655794
Br       0.542995770   0.584716176  -0.040928109
C        0.768057106   0.750600436  -0.015953968
C        0.844769645   0.669556847  -0.001687446
C        0.088291758   0.921235981   0.005786408
C        0.335379532   0.921276144   0.006358248
C        0.581525794   0.913875663  -0.006976244
C        0.834768602   0.913932694  -0.007696634
O        0.552287303   0.478750743   0.195878788
O        0.534314735   0.603958593   0.165394923
H        0.593280238   0.511306688   0.256503885
K_POINTS automatic 
  20 20 1   0 0 0 

