 &CONTROL
                 calculation = 'scf' ,
                      outdir = './tmp/' ,
                  pseudo_dir = '/home/deleted/pseudo_psl' ,
                      prefix = 'GI_ip' ,
                   verbosity = 'high' ,
               etot_conv_thr = 1.0D-5 ,
               forc_conv_thr = 4.0D-4 ,
                       nstep = 1000 ,
                    dipfield = .true. ,
 /
 &SYSTEM
                       ibrav = 4,
                           A = 9.88 ,
                           C = 15 ,
                         nat = 33,
                        ntyp = 3,
                     ecutwfc = 40.424239707 ,
                     ecutrho = 404.24239707 ,
                 occupations = 'smearing' ,
                     degauss = 0.01 ,
				   input_dft = 'vdW-DF' ,
 /
 &ELECTRONS
            electron_maxstep = 50001,
                    conv_thr = 1.0D-6 ,
                 mixing_mode = 'local-TF' ,
                 mixing_beta = 0.5 ,
 /
ATOMIC_SPECIES
    C   12.01100  C.revpbe-n-kjpaw_psl.0.1.UPF 
    I  126.90400  I.revpbe-n-kjpaw_psl.0.2.UPF 
    O   15.99940  O.revpbe-n-kjpaw_psl.0.1.UPF 
ATOMIC_POSITIONS crystal 
C        0.005568801   0.007824800   0.000772468
C        0.257913074   0.014576828   0.003310850
C        0.503632394   0.007398570  -0.001537348
C        0.751607568   0.002220110  -0.010421630
C        0.001282742   0.254353856   0.005010711
C        0.087338180   0.174761442  -0.001611993
C        0.253917840   0.261256482  -0.013976306
C        0.340454302   0.179923723  -0.010263048
C        0.508559757   0.261172605  -0.009663658
C        0.588815321   0.174339471   0.000690560
C        0.754364011   0.254164838   0.007836138
C        0.834420942   0.167576908   0.003038455
C        0.004660509   0.506907747   0.021218416
C        0.082268665   0.421170118   0.010808139
C        0.243224553   0.505961997  -0.007724692
C        0.318085010   0.423819945  -0.027470744
C        0.606045591   0.424548649  -0.016130855
C        0.762847954   0.505836890   0.003639826
C        0.840386557   0.420694348   0.016549299
C        0.010753310   0.761426163   0.016704298
C        0.088810851   0.675185520   0.021363235
C        0.252200808   0.760965373   0.011071738
C        0.328358210   0.676231701  -0.007706154
C        0.485286338   0.758415817  -0.027703448
I        0.548758709   0.591090920  -0.066918205
C        0.772660227   0.757641993  -0.016268577
C        0.848110911   0.676321521   0.003627416
C        0.091261322   0.927989703   0.008085140
C        0.338006575   0.927794120   0.005319672
C        0.583717683   0.920917187  -0.014071097
C        0.838497946   0.921005945  -0.009739919
O        0.522287577   0.591150092   0.133681958
O        0.404121543   0.593182865   0.168493138
K_POINTS automatic 
  16 16 1   0 0 0 

