 &CONTROL
                 calculation = 'scf' ,
                      outdir = './tmp/' ,
                  pseudo_dir = '/home/deleted/pseudo_psl' ,
                      prefix = 'GI_op' ,
                   verbosity = 'high' ,
               etot_conv_thr = 1.0D-5 ,
               forc_conv_thr = 4.0D-4 ,
                       nstep = 1000 ,
                    dipfield = .true. ,
 /
 &SYSTEM
                       ibrav = 4,
                           A = 9.88 ,
                           C = 15 ,
                         nat = 33,
                        ntyp = 3,
                     ecutwfc = 40.424239707 ,
                     ecutrho = 404.24239707 ,
                 occupations = 'smearing' ,
                     degauss = 0.01 ,
				   input_dft = 'vdW-DF' ,
    nspin = 2 ,
    starting_magnetization(1) = 0.5,
    starting_magnetization(2) = 0.5,
    starting_magnetization(3) = 0.5,
 /
 &ELECTRONS
            electron_maxstep = 50001,
                    conv_thr = 1.0D-6 ,
                 mixing_mode = 'local-TF' ,
                 mixing_beta = 0.5 ,
 /
ATOMIC_SPECIES
    C   12.01100  C.revpbe-n-kjpaw_psl.0.1.UPF 
    I  126.90400  I.revpbe-n-kjpaw_psl.0.2.UPF 
    O   15.99940  O.revpbe-n-kjpaw_psl.0.1.UPF 
ATOMIC_POSITIONS (crystal)
C       -0.000914307   0.016001849  -0.010272843
C        0.244844993   0.005337159  -0.008303772
C        0.498565609   0.017114225  -0.000109231
C        0.759313614   0.031024506  -0.002137394
C        0.005978678   0.270843426  -0.012418257
C        0.084499124   0.182865807  -0.012101714
C        0.252223293   0.260813137  -0.012538057
C        0.325905350   0.167914965  -0.010401230
C        0.490581300   0.259540162  -0.009741256
C        0.580187332   0.182636123  -0.005907425
C        0.747695646   0.271685913  -0.007308568
C        0.837808781   0.191726359  -0.007732861
C       -0.000383224   0.516297264  -0.011175789
C        0.092544936   0.435436173  -0.013110656
C        0.269835663   0.514479562  -0.012111807
C        0.351596002   0.421684458  -0.012446176
C        0.553023132   0.422794996  -0.010837632
C        0.723883514   0.514168742  -0.010419285
C        0.823105405   0.435007242  -0.010224580
C       -0.011836122   0.761432799  -0.008846528
C        0.081855617   0.679691435  -0.009024849
C        0.255532607   0.758623089  -0.005909176
C        0.347137729   0.678362909  -0.005954635
C        0.526559230   0.771179459   0.013751265
I        0.590383955   0.488182231   0.220100642
C        0.735211521   0.775476169  -0.007193289
C        0.811617301   0.683778842  -0.009212427
C        0.075838215   0.925726889  -0.009455234
C        0.334258542   0.926945377  -0.003779139
C        0.592149965   0.941599922   0.012981296
C        0.832015879   0.938945501  -0.007202436
O        0.583871172   0.496902521   0.349134520
O        0.554272983   0.841543939   0.099070777
K_POINTS automatic 
  16 16 1   0 0 0 

