 &CONTROL
                 calculation = 'bands' ,
                      outdir = './tmp/' ,
                  pseudo_dir = '/home/deleted/pseudo_psl' ,
                      prefix = 'GI_ip' ,
                   verbosity = 'high' ,
               etot_conv_thr = 1.0D-5 ,
               forc_conv_thr = 4.0D-4 ,
                       nstep = 1000 ,
                    dipfield = .true. ,
 /
 &SYSTEM
                       ibrav = 4,
                           A = 9.88 ,
                           C = 15 ,
                         nat = 33,
                        ntyp = 3,
                     ecutwfc = 40.424239707 ,
                     ecutrho = 404.24239707 ,
                 occupations = 'tetrahedra' ,
                     degauss = 0.01 ,
				   input_dft = 'vdW-DF' ,
    nspin = 2 ,
    starting_magnetization(1) = 0.5,
    starting_magnetization(2) = 0.5,
    starting_magnetization(3) = 0.5,
 /
 &ELECTRONS
            electron_maxstep = 50001,
                    conv_thr = 1.0D-6 ,
                 mixing_mode = 'local-TF' ,
                 mixing_beta = 0.5 ,
 /
ATOMIC_SPECIES
    C   12.01100  C.revpbe-n-kjpaw_psl.0.1.UPF 
    I  126.90400  I.revpbe-n-kjpaw_psl.0.2.UPF 
    O   15.99940  O.revpbe-n-kjpaw_psl.0.1.UPF 
ATOMIC_POSITIONS (crystal)
C        0.004254984   0.007615174  -0.001658092
C        0.256806897   0.014537460   0.001888080
C        0.502457415   0.007525632  -0.002311247
C        0.750726795   0.002493730  -0.011931623
C        0.000178692   0.254382948   0.004862526
C        0.086042854   0.174719204  -0.002313068
C        0.252834752   0.261143268  -0.014081260
C        0.339350721   0.179748850  -0.011784397
C        0.507312388   0.261174695  -0.012675367
C        0.587745780   0.174651281  -0.001541425
C        0.753243412   0.254353911   0.005791027
C        0.833349451   0.167689074   0.001830875
C        0.003262355   0.507099775   0.020909287
C        0.081055030   0.421190943   0.011963028
C        0.242381928   0.505922446  -0.005301994
C        0.317388667   0.424023007  -0.025165040
C        0.605375628   0.424356418  -0.021511172
C        0.762193234   0.505947572  -0.001532388
C        0.839245953   0.421058617   0.013853362
C        0.009329482   0.761200390   0.013790535
C        0.087288216   0.675143911   0.020901269
C        0.250991075   0.761017485   0.011964574
C        0.327546388   0.676249284  -0.005314305
C        0.484459243   0.758156484  -0.025167107
I        0.545949085   0.591071223  -0.069494794
C        0.772173556   0.757906889  -0.021609552
C        0.847384690   0.676327546  -0.001562525
C        0.090036107   0.927890811   0.005689326
C        0.336942243   0.927836618   0.004913538
C        0.582797608   0.921074325  -0.014158136
C        0.837310634   0.921100928  -0.012849082
O        0.538174059   0.592167978   0.153187218
O        0.422636459   0.591050368   0.190431710
K_POINTS automatic 
  20 20 1   0 0 0 

