 &CONTROL
                 calculation = 'relax' ,
                      outdir = './tmp/' ,
                  pseudo_dir = '/home/deleted/pseudo_psl' ,
                      prefix = 'GF_op' ,
                   verbosity = 'high' ,
               etot_conv_thr = 1.0D-5 ,
               forc_conv_thr = 4.0D-4 ,
                       nstep = 1000 ,
                    dipfield = .true. ,
 /
 &SYSTEM
                       ibrav = 4,
                           A = 9.88 ,
                           C = 15 ,
                         nat = 33,
                        ntyp = 3,
                     ecutwfc = 40.424239707 ,
                     ecutrho = 404.24239707 ,
                 occupations = 'smearing' ,
                     degauss = 0.01 ,
				   input_dft = 'vdW-DF' ,
 /
 &ELECTRONS
            electron_maxstep = 50001,
                    conv_thr = 1.0D-6 ,
                 mixing_mode = 'local-TF' ,
                 mixing_beta = 0.5 ,
 /
 &IONS
                ion_dynamics = 'bfgs' ,
 /
ATOMIC_SPECIES
    C   12.01100  C.revpbe-n-kjpaw_psl.0.1.UPF 
    F   18.99800  F.revpbe-n-kjpaw_psl.0.1.UPF 
    O   15.99940  O.revpbe-n-kjpaw_psl.0.1.UPF 
ATOMIC_POSITIONS crystal 
C       -0.006990332   0.001664766   0.003273698
C        0.239732113  -0.003043325   0.009764882
C        0.490965755   0.001843116   0.016238762
C        0.741740016   0.003118479   0.008948734
C       -0.005666598   0.252539226   0.005829834
C        0.076510073   0.168387595   0.007898779
C        0.244139717   0.249771103   0.008539143
C        0.321380977   0.160548382   0.008520122
C        0.487304444   0.249173921   0.006772388
C        0.573646145   0.168049233   0.008019489
C        0.740020479   0.252417930   0.006884895
C        0.825495000   0.169563869   0.006437290
C       -0.008799728   0.500377808   0.005857794
C        0.080462491   0.418510615   0.008650868
C        0.255020181   0.501436263   0.016481918
C        0.335911577   0.412131773   0.010283895
C        0.558247840   0.411827018   0.003183044
C        0.727623665   0.500166113  -0.003412360
C        0.819509632   0.418294153   0.002895655
C       -0.010338547   0.749072437   0.001019761
C        0.074192057   0.665959528   0.007144516
C        0.241515377   0.748487990   0.016015135
C        0.326682592   0.668108542   0.028130476
C        0.486812658   0.762645078   0.055662967
F        0.612176341   0.691384956  -0.066458195
C        0.756692719   0.762414945  -0.027567530
C        0.823188417   0.668559199  -0.011719184
C        0.072800092   0.915069795   0.004218560
C        0.324068580   0.915510656   0.015875283
C        0.577331883   0.922602016   0.026915629
C        0.827049517   0.921593015  -0.005904030
O        0.534520178   0.690850751   0.112320306
O        0.685550274   0.775412631   0.147092587
K_POINTS automatic 
  4 4 1   0 0 0 

