 &CONTROL
                 calculation = 'nscf' ,
                      outdir = './tmp/' ,
                  pseudo_dir = '/home/deleted/pseudo_psl' ,
                      prefix = 'GBr_ip' ,
                   verbosity = 'high' ,
               etot_conv_thr = 1.0D-5 ,
               forc_conv_thr = 4.0D-4 ,
                       nstep = 1000 ,
                    dipfield = .true. ,
 /
 &SYSTEM
                       ibrav = 4,
                           A = 9.88 ,
                           C = 15 ,
                         nat = 34,
                        ntyp = 4,
                     ecutwfc = 40.424239707 ,
                     ecutrho = 404.24239707 ,
                 occupations = 'tetrahedra' ,
                     degauss = 0.01 ,
				   input_dft = 'vdW-DF' ,
    nspin = 2 ,
    starting_magnetization(1) = 0.5,
    starting_magnetization(2) = 0.5,
    starting_magnetization(3) = 0.5,
 /
 &ELECTRONS
            electron_maxstep = 50001,
                    conv_thr = 1.0D-6 ,
                 mixing_mode = 'local-TF' ,
                 mixing_beta = 0.5 ,
 /
ATOMIC_SPECIES
    C   12.01100  C.revpbe-n-kjpaw_psl.0.1.UPF 
   Br   79.90350  Br.revpbe-n-kjpaw_psl.0.2.UPF 
    O   15.99940  O.revpbe-n-kjpaw_psl.0.1.UPF 
    H   1.008000  H.revpbe-kjpaw_psl.0.1.UPF
ATOMIC_POSITIONS (crystal)
C       -0.006973326   0.004179741   0.002057508
C        0.245563497   0.010893464   0.005446623
C        0.491374395   0.004228414   0.002518832
C        0.739596174  -0.001076429  -0.004233194
C       -0.010790349   0.251163399   0.008072606
C        0.074911663   0.171305841   0.002572217
C        0.242583301   0.258330601  -0.005522223
C        0.328445309   0.176615965  -0.004553318
C        0.495988562   0.258334526  -0.006522443
C        0.576619977   0.171350612   0.001875438
C        0.742193836   0.251198185   0.007112527
C        0.822432396   0.164652685   0.005593926
C       -0.008091080   0.503735333   0.018291579
C        0.069814345   0.417800082   0.013533760
C        0.232844095   0.502769925   0.002232344
C        0.309232473   0.421587833  -0.013095797
C        0.592689360   0.421409663  -0.015814101
C        0.750429271   0.502773850  -0.000944930
C        0.828222055   0.417888734   0.011809170
C       -0.001903323   0.757611859   0.011928884
C        0.075931545   0.671790686   0.018288067
C        0.239771530   0.757730005   0.013537429
C        0.317850403   0.672752563   0.002314846
C        0.475454839   0.753929998  -0.012827391
Br       0.533621118   0.587788715  -0.040342019
C        0.759007877   0.754132311  -0.015526287
C        0.835407419   0.672749270  -0.000787805
C        0.078766236   0.924333778   0.007238377
C        0.325809384   0.924374107   0.007951470
C        0.572044251   0.917193848  -0.005279809
C        0.825401390   0.917183680  -0.006202948
O        0.528642628   0.584271301   0.176026589
O        0.646346284   0.595015288   0.214904492
H        0.868820635   0.456632525   0.217575143
K_POINTS automatic 
  20 20 1   0 0 0 

