 &CONTROL
                 calculation = 'nscf' ,
                      outdir = './tmp/' ,
                  pseudo_dir = '/home/deleted/pseudo_psl' ,
                      prefix = 'GF_ip' ,
                   verbosity = 'high' ,
               etot_conv_thr = 1.0D-5 ,
               forc_conv_thr = 4.0D-4 ,
                       nstep = 1000 ,
                    dipfield = .true. ,
 /
 &SYSTEM
                       ibrav = 4,
                           A = 9.88 ,
                           C = 15 ,
                         nat = 33,
                        ntyp = 3,
                     ecutwfc = 40.424239707 ,
                     ecutrho = 404.24239707 ,
                 occupations = 'tetrahedra' ,
                     degauss = 0.01 ,
				   input_dft = 'vdW-DF' ,
 /
 &ELECTRONS
            electron_maxstep = 50001,
                    conv_thr = 1.0D-6 ,
                 mixing_mode = 'local-TF' ,
                 mixing_beta = 0.5 ,
 /
ATOMIC_SPECIES
    C   12.01100  C.revpbe-n-kjpaw_psl.0.1.UPF 
    F   18.99800  F.revpbe-n-kjpaw_psl.0.1.UPF 
    O   15.99940  O.revpbe-n-kjpaw_psl.0.1.UPF 
ATOMIC_POSITIONS crystal 
C       -0.004616988  -0.001176006  -0.002144933
C        0.246054205   0.000267843   0.005079369
C        0.496453863   0.001462279   0.009707118
C        0.743396865  -0.001616937  -0.000077053
C       -0.005106742   0.249163834   0.008809162
C        0.077883680   0.164498701   0.010246001
C        0.241899865   0.244964231   0.021747554
C        0.327906699   0.167422678   0.009113755
C        0.496336820   0.252008753  -0.001333113
C        0.579594217   0.167484309  -0.000004408
C        0.745672259   0.250251253  -0.001745331
C        0.829197958   0.166151509   0.000611308
C       -0.003855261   0.500016621   0.003486942
C        0.078449671   0.416998389   0.015630967
C        0.240863415   0.501185398   0.039444147
C        0.308210227   0.400529437   0.067487142
C        0.583333469   0.411203036  -0.016558775
C        0.744887445   0.498554864  -0.018479658
C        0.829841952   0.416435268  -0.006209457
C       -0.003091776   0.750418284  -0.006335016
C        0.079353194   0.666723510   0.004629381
C        0.244444424   0.749538826   0.016980454
C        0.323295089   0.665529443   0.039386405
C        0.494472635   0.762833849   0.060231396
F        0.610751675   0.683123971  -0.066996179
C        0.759901570   0.757384354  -0.034343375
C        0.832560087   0.668160218  -0.022652278
C        0.079092140   0.916454433  -0.001330088
C        0.328752966   0.917185868   0.011158031
C        0.580000157   0.920387243   0.015973338
C        0.829512296   0.916580680  -0.012538167
O        0.563603358   0.728707437   0.116023835
O        0.387615227   0.424499766   0.135001526
K_POINTS automatic 
  20 20 1   0 0 0 

