 &CONTROL
                 calculation = 'bands' ,
                      outdir = './tmp/' ,
                  pseudo_dir = '/home/deleted/pseudo_psl' ,
                      prefix = 'GBr_op' ,
                   verbosity = 'high' ,
               etot_conv_thr = 1.0D-5 ,
               forc_conv_thr = 4.0D-4 ,
                       nstep = 1000 ,
                    dipfield = .true. ,
 /
 &SYSTEM
                       ibrav = 4,
                           A = 9.88 ,
                           C = 15 ,
                         nat = 32,
                        ntyp = 3,
                     ecutwfc = 40.424239707 ,
                     ecutrho = 404.24239707 ,
                 occupations = 'tetrahedra' ,
                     degauss = 0.01 ,
				   input_dft = 'vdW-DF' ,
    nspin = 2 ,
    starting_magnetization(1) = 0.5,
    starting_magnetization(2) = 0.5,
    starting_magnetization(3) = 0.5,
 /
 &ELECTRONS
            electron_maxstep = 50001,
                    conv_thr = 1.0D-6 ,
                 mixing_mode = 'local-TF' ,
                 mixing_beta = 0.5 ,
 /
ATOMIC_SPECIES
    C   12.01100  C.revpbe-n-kjpaw_psl.0.1.UPF 
   Br   79.90350  Br.revpbe-n-kjpaw_psl.0.2.UPF 
    O   15.99940  O.revpbe-n-kjpaw_psl.0.1.UPF 
ATOMIC_POSITIONS (crystal)
C       -0.000836939   0.001316436   0.003119872
C        0.246490097  -0.003575217  -0.005438189
C        0.498566199   0.001632506  -0.007515373
C        0.748689928   0.003759603   0.005474629
C        0.000681292   0.252716672   0.002486012
C        0.082459798   0.168364105  -0.001663022
C        0.250524680   0.249816059  -0.003993332
C        0.328114786   0.160585191  -0.004259327
C        0.493887395   0.249349045  -0.001388418
C        0.580261622   0.168216930  -0.000690323
C        0.746411440   0.252690189   0.001484457
C        0.832165642   0.170084791   0.003973742
C       -0.002746903   0.500480854   0.000826842
C        0.086415525   0.418558858  -0.000990204
C        0.260756106   0.501462688  -0.009055801
C        0.341947457   0.411875141  -0.005184180
C        0.564719443   0.412253925   0.002930338
C        0.733869726   0.500529528   0.010697692
C        0.825716629   0.418757959   0.004164049
C       -0.005313379   0.749349213   0.002988588
C        0.079593919   0.666018565  -0.002881887
C        0.247377570   0.747513773  -0.010662360
C        0.332522453   0.666859811  -0.018867701
C        0.499289407   0.758149858  -0.043259280
Br       0.605428261   0.689601591   0.138539959
C        0.765759036   0.764056774   0.045848639
C        0.828089766   0.669284236   0.020478490
C        0.079248729   0.914907339   0.000259409
C        0.330859181   0.915170628  -0.010210538
C        0.584892292   0.922486210  -0.011214053
C        0.834606811   0.921570941   0.018704781
O        0.561561875   0.702304153  -0.091448170
K_POINTS automatic 
  20 20 1   0 0 0 

