&CONTROL
	calculation = 'scf' ,
	outdir = './tmp_subs/' ,
	pseudo_dir = '/home/deleted/pseudo_psl' ,
	prefix = 'GF_op-subs' ,
	verbosity = 'high' ,
	etot_conv_thr = 1.0D-5 ,
	forc_conv_thr = 4.0D-4 ,
	nstep = 1000 ,
	dipfield = .true. ,
/
&SYSTEM
	ibrav = 4,
	A = 9.88 ,
	C = 15 ,
	nat = 30,
	ntyp = 1,
	ecutwfc = 40.424239707 ,
	ecutrho = 404.24239707 ,
	occupations = 'smearing' ,
	degauss = 0.01 ,
    input_dft = 'vdW-DF' ,
/
&ELECTRONS
	electron_maxstep = 50001,
	conv_thr = 1.0D-6 ,
	mixing_mode = 'local-TF' ,
	mixing_beta = 0.5 ,
/
ATOMIC_SPECIES
	C	12.01100	C.revpbe-n-kjpaw_psl.0.1.UPF 
ATOMIC_POSITIONS crystal 
C        0.002072700   0.002656171   0.009784347
C        0.240972099  -0.018055801   0.045805182
C        0.500583471   0.002656171   0.009784347
C        0.751250524   0.002501048   0.000699388
C        0.002152056   0.252334868  -0.004098139
C        0.088578414   0.169976899  -0.000790425
C        0.255172825   0.265610472  -0.010467766
C        0.510437647   0.265610472  -0.010467766
C        0.581398483   0.169976899  -0.000790425
C        0.750182811   0.252334868  -0.004098139
C        0.834499552   0.168999105  -0.001229685
C        0.001381318   0.502762636  -0.006932796
C        0.083432589   0.419171288  -0.007992743
C        0.249842692   0.506637029  -0.009784163
C        0.319855126   0.415821272  -0.011754763
C        0.595966145   0.415821272  -0.011754763
C        0.756794337   0.506637029  -0.009784163
C        0.835738698   0.419171288  -0.007992743
C        0.001914957   0.752574784   0.000954059
C        0.084206645   0.668413292  -0.001897944
C        0.250659827   0.752574784   0.000954059
C        0.334001425   0.671485287  -0.005697020
C        0.501622796   0.748970047  -0.002054159
C        0.582249307   0.664498615  -0.006274616
C        0.747347251   0.748970047  -0.002054159
C        0.837483861   0.671485287  -0.005697020
C        0.083477238   0.916790295   0.019157758
C        0.333313056   0.916790295   0.019157758
C        0.584249700   0.918742526   0.002877724
C        0.834492826   0.918742526   0.002877724
K_POINTS automatic 
	16 16 1   0 0 0 
