&CONTROL
	calculation = 'bands' ,
	outdir = './tmp/' ,
	pseudo_dir = '/home/deleted/pseudo_psl' ,
	prefix = 'GI_op' ,
	verbosity = 'high' ,
	etot_conv_thr = 1.0D-5 ,
	forc_conv_thr = 4.0D-4 ,
	nstep = 1000 ,
	dipfield = .true. ,
/
&SYSTEM
	ibrav = 4,
	A = 9.88 ,
	C = 15 ,
	nat = 31,
	ntyp = 2,
	ecutwfc = 40.424239707 ,
	ecutrho = 404.24239707 ,
	occupations = 'tetrahedra' ,
	degauss = 0.01 ,
    input_dft = 'vdW-DF' ,
/
&ELECTRONS
	electron_maxstep = 50001,
	conv_thr = 1.0D-6 ,
	mixing_mode = 'local-TF' ,
	mixing_beta = 0.5 ,
/
ATOMIC_SPECIES
	C	12.01100	C.revpbe-n-kjpaw_psl.0.1.UPF 
	I	126.90400	I.revpbe-n-kjpaw_psl.0.2.UPF  
ATOMIC_POSITIONS crystal 
C        0.000407332  -0.000468141  -0.002393280
C        0.257623091   0.012805337  -0.001722724
C        0.500872025   0.001704457  -0.000610325
C        0.748609883  -0.007027725  -0.001511442
C        0.006951294   0.251274052  -0.001513143
C        0.095487069   0.174918328  -0.002259408
C        0.273209073   0.274589715  -0.002594073
C        0.356784554   0.189912206  -0.002432412
I        0.592761516   0.409354900   0.207112779
C        0.591168085   0.168640502  -0.000981437
C        0.756924959   0.243007533  -0.001386085
C        0.838346156   0.161565627  -0.001460280
C       -0.001774600   0.499016076  -0.000642583
C        0.084630150   0.418190862  -0.000815704
C        0.251662315   0.508330208  -0.000648982
C        0.351986384   0.446297715  -0.001604506
C        0.528569816   0.268574756  -0.000664231
C        0.731273969   0.471318018  -0.000551129
C        0.831268216   0.408744519  -0.000974904
C       -0.012880070   0.742268890  -0.001789789
C        0.075711461   0.665856417  -0.000627726
C        0.244346192   0.755587806  -0.000157924
C        0.325696306   0.674237740  -0.000094642
C        0.491602432   0.748290903  -0.000625625
C        0.553697324   0.648032260  -0.001596787
C        0.725398990   0.726785554  -0.002599542
C        0.810021167   0.643159154  -0.002445361
C        0.082223942   0.917678051  -0.002110054
C        0.334039136   0.924229878  -0.000588114
C        0.581695115   0.915305586  -0.000783654
C        0.825020045   0.904485486  -0.002260247
K_POINTS crystal_b 
4
0.0000000000    0.0000000000    0.0000000000 17
0.0000000000    0.5000000000    0.0000000000 10
0.3333333333    0.3333333333    0.0000000000 20
0.0000000000    0.0000000000    0.0000000000 1
