 &CONTROL
                 calculation = 'bands' ,
                      outdir = './tmp/' ,
                  pseudo_dir = '/home/deleted/pseudo_psl' ,
                      prefix = 'GI_ip' ,
                   verbosity = 'high' ,
               etot_conv_thr = 1.0D-5 ,
               forc_conv_thr = 4.0D-4 ,
                       nstep = 1000 ,
                    dipfield = .true. ,
 /
 &SYSTEM
                       ibrav = 4,
                           A = 9.88 ,
                           C = 15 ,
                         nat = 33,
                        ntyp = 3,
                     ecutwfc = 40.424239707 ,
                     ecutrho = 404.24239707 ,
                 occupations = 'tetrahedra' ,
                     degauss = 0.01 ,
				   input_dft = 'vdW-DF' ,
    nspin = 2 ,
    starting_magnetization(1) = 0.5,
    starting_magnetization(2) = 0.5,
    starting_magnetization(3) = 0.5,
 /
 &ELECTRONS
            electron_maxstep = 50001,
                    conv_thr = 1.0D-6 ,
                 mixing_mode = 'local-TF' ,
                 mixing_beta = 0.5 ,
 /
ATOMIC_SPECIES
    C   12.01100  C.revpbe-n-kjpaw_psl.0.1.UPF 
    I  126.90400  I.revpbe-n-kjpaw_psl.0.2.UPF 
    O   15.99940  O.revpbe-n-kjpaw_psl.0.1.UPF 
ATOMIC_POSITIONS (crystal)
C        0.002351896   0.012744806   0.004492652
C        0.254925018   0.019721534   0.007811462
C        0.500571482   0.012625152   0.003498875
C        0.748838325   0.007564115  -0.005826770
C       -0.001696301   0.259529899   0.010946707
C        0.084148147   0.179866701   0.003738307
C        0.250939180   0.266319173  -0.008070625
C        0.337475070   0.184924255  -0.005870794
C        0.505454287   0.266270165  -0.006747472
C        0.585882767   0.179729441   0.004350290
C        0.751371604   0.259434605   0.011808635
C        0.831469165   0.172772318   0.007911146
C        0.001402254   0.512249897   0.026960494
C        0.079184442   0.426349684   0.018029185
C        0.240518648   0.511118511   0.000791975
C        0.315515803   0.429217965  -0.019051999
C        0.603540661   0.429461270  -0.015418951
C        0.760327981   0.511030701   0.004609811
C        0.837386167   0.426140648   0.019926813
C        0.007478263   0.766355587   0.019894378
C        0.085440699   0.680309961   0.026904736
C        0.249125898   0.766213060   0.017896939
C        0.325691532   0.681437763   0.000704617
C        0.482566966   0.763283060  -0.019233249
I        0.544119440   0.596213323  -0.063334147
C        0.770265340   0.762974504  -0.015369118
C        0.845514737   0.681414294   0.004612704
C        0.088163061   0.933061099   0.011809725
C        0.335052793   0.933001733   0.010725743
C        0.580924066   0.926173887  -0.008231632
C        0.835402077   0.926173403  -0.006641995
O        0.535623258   0.594941761   0.159737769
O        0.422129905   0.598338337   0.196633790
K_POINTS automatic 
  20 20 1   0 0 0 

