 &CONTROL
                 calculation = 'scf' ,
                      outdir = './tmp/' ,
                  pseudo_dir = '/home/deleted/pseudo_psl' ,
                      prefix = 'GF_ip' ,
                   verbosity = 'high' ,
               etot_conv_thr = 1.0D-5 ,
               forc_conv_thr = 4.0D-4 ,
                       nstep = 1000 ,
                    dipfield = .true. ,
 /
 &SYSTEM
                       ibrav = 4,
                           A = 9.88 ,
                           C = 15 ,
                         nat = 34,
                        ntyp = 4,
                     ecutwfc = 40.424239707 ,
                     ecutrho = 404.24239707 ,
                 occupations = 'smearing' ,
                     degauss = 0.01 ,
				   input_dft = 'vdW-DF' ,
 /
 &ELECTRONS
            electron_maxstep = 50001,
                    conv_thr = 1.0D-6 ,
                 mixing_mode = 'local-TF' ,
                 mixing_beta = 0.5 ,
 /
ATOMIC_SPECIES
    C   12.01100  C.revpbe-n-kjpaw_psl.0.1.UPF 
    F   18.99800  F.revpbe-n-kjpaw_psl.0.1.UPF 
    O   15.99940  O.revpbe-n-kjpaw_psl.0.1.UPF 
    H   1.008000  H.revpbe-kjpaw_psl.0.1.UPF
ATOMIC_POSITIONS crystal 
C        0.007869945   0.011897077   0.014643320
C        0.255309271   0.008993875   0.010045266
C        0.505592236   0.012269282   0.004152994
C        0.757382480   0.012693376   0.008131526
C        0.009022291   0.262528081   0.008930025
C        0.090905521   0.178283450   0.008897065
C        0.258734960   0.260169022   0.008360194
C        0.337162038   0.172430992   0.010574783
C        0.503411421   0.260414410   0.012274412
C        0.589242176   0.178560705   0.010440724
C        0.755549502   0.262341906   0.008622362
C        0.840351813   0.178535781   0.008532763
C        0.006869363   0.511317098   0.007672098
C        0.094418087   0.428523511   0.004693755
C        0.267102612   0.511456960  -0.003094950
C        0.344639778   0.422141620   0.004204416
C        0.578880844   0.422783398   0.015086070
C        0.746977260   0.510912164   0.018377277
C        0.836538411   0.428267038   0.011389649
C        0.005948567   0.760311414   0.014805459
C        0.089489588   0.676940850   0.007782061
C        0.256455894   0.760627019   0.001343501
C        0.341674233   0.679951906  -0.012535447
C        0.500731651   0.773707846  -0.031544656
F        0.572423382   0.703570451  -0.074465341
C        0.773019520   0.771511122   0.046159136
C        0.839890256   0.679137140   0.027048308
C        0.088776887   0.926375293   0.014204991
C        0.339323255   0.926564631   0.004564320
C        0.590785236   0.931750758  -0.007183976
C        0.841718618   0.930763389   0.023612648
O        0.674893779   0.734000989   0.189868280
O        0.626177539   0.701118671   0.092071992
H        0.572042568   0.584163963   0.084363511
K_POINTS automatic 
  16 16 1   0 0 0 

