 &CONTROL
                 calculation = 'bands' ,
                      outdir = './tmp/' ,
                  pseudo_dir = '/home/deleted/pseudo_psl' ,
                      prefix = 'GF_op' ,
                   verbosity = 'high' ,
               etot_conv_thr = 1.0D-5 ,
               forc_conv_thr = 4.0D-4 ,
                       nstep = 1000 ,
                    dipfield = .true. ,
 /
 &SYSTEM
                       ibrav = 4,
                           A = 9.88 ,
                           C = 15 ,
                         nat = 33,
                        ntyp = 3,
                     ecutwfc = 40.424239707 ,
                     ecutrho = 404.24239707 ,
                 occupations = 'tetrahedra' ,
                     degauss = 0.01 ,
				   input_dft = 'vdW-DF' ,
 /
 &ELECTRONS
            electron_maxstep = 50001,
                    conv_thr = 1.0D-6 ,
                 mixing_mode = 'local-TF' ,
                 mixing_beta = 0.5 ,
 /
ATOMIC_SPECIES
    C   12.01100  C.revpbe-n-kjpaw_psl.0.1.UPF 
    F   18.99800  F.revpbe-n-kjpaw_psl.0.1.UPF 
    O   15.99940  O.revpbe-n-kjpaw_psl.0.1.UPF 
ATOMIC_POSITIONS crystal 
C        0.007070886   0.010706494  -0.000068990
C        0.251326743   0.002653485   0.002236019
C        0.503635608   0.010706494  -0.000068990
C        0.758210804   0.016421609  -0.006435579
C        0.008641260   0.261586686  -0.002367024
C        0.090385601   0.176997513  -0.000331153
C        0.257412595   0.255780553   0.000383531
C        0.332674452   0.165348906   0.001690265
C        0.498367959   0.255780553   0.000383531
C        0.586611911   0.176997513  -0.000331153
C        0.752945426   0.261586686  -0.002367024
C        0.840225713   0.180451427  -0.004240003
C        0.004232340   0.508464679  -0.001340924
C        0.095343748   0.426753764  -0.001852371
C        0.269870075   0.506320848  -0.001756365
C        0.352378189   0.417599420  -0.001408744
C        0.565221230   0.417599420  -0.001408744
C        0.736450773   0.506320848  -0.001756365
C        0.831410015   0.426753764  -0.001852371
C        0.000535758   0.755679627   0.000705146
C        0.086529983   0.673059967   0.000629926
C        0.255143868   0.755679627   0.000705146
C        0.343414957   0.674173932  -0.002067427
C        0.503632941   0.772028213  -0.002443878
F        0.597896902   0.695793806  -0.043104663
C        0.768395272   0.772028213  -0.002443878
C        0.830758975   0.674173932  -0.002067427
C        0.084499812   0.921516844   0.001597998
C        0.337017031   0.921516844   0.001597998
C        0.591431489   0.932819680  -0.004911325
C        0.841388190   0.932819680  -0.004911325
O        0.624347310   0.748694620   0.134918919
O        0.559258849   0.618517698   0.178020578
K_POINTS crystal_b 
4
0.0000000000    0.0000000000    0.0000000000 17
0.0000000000    0.5000000000    0.0000000000 10
0.3333333333    0.3333333333    0.0000000000 20
0.0000000000    0.0000000000    0.0000000000 1

