 &CONTROL
                 calculation = 'nscf' ,
                      outdir = './tmp/' ,
                  pseudo_dir = '/home/deleted/pseudo_psl' ,
                      prefix = 'GBr_op' ,
                   verbosity = 'high' ,
               etot_conv_thr = 1.0D-5 ,
               forc_conv_thr = 4.0D-4 ,
                       nstep = 1000 ,
                    dipfield = .true. ,
 /
 &SYSTEM
                       ibrav = 4,
                           A = 9.88 ,
                           C = 15 ,
                         nat = 32,
                        ntyp = 3,
                     ecutwfc = 40.424239707 ,
                     ecutrho = 404.24239707 ,
                 occupations = 'tetrahedra' ,
                     degauss = 0.01 ,
				   input_dft = 'vdW-DF' ,
    nspin = 2 ,
    starting_magnetization(1) = 0.5,
    starting_magnetization(2) = 0.5,
    starting_magnetization(3) = 0.5,
 /
 &ELECTRONS
            electron_maxstep = 50001,
                    conv_thr = 1.0D-6 ,
                 mixing_mode = 'local-TF' ,
                 mixing_beta = 0.5 ,
 /
ATOMIC_SPECIES
    C   12.01100  C.revpbe-n-kjpaw_psl.0.1.UPF 
   Br   79.90350  Br.revpbe-n-kjpaw_psl.0.2.UPF 
    O   15.99940  O.revpbe-n-kjpaw_psl.0.1.UPF 
ATOMIC_POSITIONS (crystal)
C        0.000985573   0.004711451  -0.005425736
C        0.247180637  -0.005638725  -0.005719133
C        0.503725878   0.004711451  -0.005425736
C        0.759968124   0.019936248  -0.005071503
C        0.010011333   0.261323176  -0.005631733
C        0.087406797   0.171942023  -0.005811019
C        0.254264204   0.248560810  -0.006478087
C        0.328375717   0.156751435  -0.006250862
C        0.494296606   0.248560810  -0.006478087
C        0.584535225   0.171942023  -0.005811019
C        0.751311843   0.261323176  -0.005631733
C        0.841137033   0.182274069  -0.005253856
C        0.003324367   0.506648736  -0.005976392
C        0.098540741   0.426118707  -0.005975962
C        0.275954248   0.503812233  -0.006274055
C        0.354162228   0.410634754  -0.006630610
C        0.556472525   0.410634754  -0.006630610
C        0.727857985   0.503812233  -0.006274055
C        0.827577966   0.426118707  -0.005975962
C       -0.010209044   0.750454751  -0.005693922
C        0.084962018   0.669924036  -0.005848093
C        0.260663796   0.750454751  -0.005693922
C        0.360395686   0.672571475  -0.005889560
C        0.531819806   0.765881221  -0.005654127
Br       0.551449376   0.602898752   0.231031650
C        0.734061415   0.765881221  -0.005654127
C        0.812175788   0.672571475  -0.005889560
C        0.078316869   0.915281997  -0.005529518
C        0.336965127   0.915281997  -0.005529518
C        0.593956617   0.927962702  -0.005275596
C        0.834006083   0.927962702  -0.005275596
O        0.457680760   0.415361520   0.176961370
K_POINTS automatic 
  20 20 1   0 0 0 

