 &CONTROL
                 calculation = 'relax' ,
                      outdir = './tmp/' ,
                  pseudo_dir = '/home/deleted/pseudo_psl' ,
                      prefix = 'GCl_op' ,
                   verbosity = 'high' ,
               etot_conv_thr = 1.0D-5 ,
               forc_conv_thr = 4.0D-4 ,
                       nstep = 1000 ,
                    dipfield = .true. ,
 /
 &SYSTEM
                       ibrav = 4,
                           A = 9.88 ,
                           C = 15 ,
                         nat = 34,
                        ntyp = 4,
                     ecutwfc = 40.424239707 ,
                     ecutrho = 404.24239707 ,
                 occupations = 'smearing' ,
                     degauss = 0.01 ,
				   input_dft = 'vdW-DF' ,
 /
 &ELECTRONS
            electron_maxstep = 50001,
                    conv_thr = 1.0D-6 ,
                 mixing_mode = 'local-TF' ,
                 mixing_beta = 0.5 ,
 /
 &IONS
                ion_dynamics = 'bfgs' ,
 /
ATOMIC_SPECIES
    C   12.01100  C.revpbe-n-kjpaw_psl.0.1.UPF 
   Cl   35.45200  Cl.revpbe-n-kjpaw_psl.0.3.0.UPF 
    O   15.99940  O.revpbe-n-kjpaw_psl.0.1.UPF 
    H   1.008000  H.revpbe-kjpaw_psl.0.1.UPF
ATOMIC_POSITIONS crystal 
C       -0.021620830   0.001109939  -0.003535785
C        0.222473604  -0.007839636  -0.002680695
C        0.475755861   0.001004936  -0.001159904
C        0.730864749   0.008376764  -0.002035570
C       -0.018627230   0.253307907  -0.002101152
C        0.062218222   0.167408582  -0.002604424
C        0.228844982   0.245575927  -0.002365030
C        0.303936658   0.154929569  -0.002010312
C        0.469768792   0.245562618  -0.001470027
C        0.558220581   0.167403873  -0.001115513
C        0.724979893   0.253313609  -0.001415758
C        0.812932014   0.172742132  -0.001674941
C       -0.023546250   0.499957083  -0.002684273
C        0.068700586   0.418538416  -0.002252228
C        0.244481344   0.498490385  -0.002417299
C        0.326108096   0.407584823  -0.002437560
C        0.534664201   0.407612137  -0.002242343
C        0.707077404   0.498566796  -0.003098230
C        0.802776969   0.418485417  -0.002301191
C       -0.029677209   0.746045534  -0.004339798
C        0.058683138   0.664569855  -0.003430939
C        0.228682764   0.746087963  -0.002500415
C        0.319049697   0.666663169  -0.002299501
C        0.484676287   0.760283846  -0.002265715
Cl       0.815962927   0.753155009   0.226584499
C        0.728898158   0.760208602  -0.004064471
C        0.800750742   0.666662891  -0.004629367
C        0.055679035   0.911989909  -0.003985147
C        0.309255430   0.911906000  -0.001958188
C        0.563891808   0.923471501  -0.001516372
C        0.812856293   0.923597259  -0.003335066
O        0.991788634   0.807637803   0.190083145
O        0.568719227   0.684058380  -0.003890534
H        0.751148713   0.841484797   0.095647157
K_POINTS automatic 
  4 4 1   0 0 0 

