 &CONTROL
                 calculation = 'bands' ,
                      outdir = './tmp/' ,
                  pseudo_dir = '/home/deleted/pseudo_psl' ,
                      prefix = 'GCl_op' ,
                   verbosity = 'high' ,
               etot_conv_thr = 1.0D-5 ,
               forc_conv_thr = 4.0D-4 ,
                       nstep = 1000 ,
                    dipfield = .true. ,
 /
 &SYSTEM
                       ibrav = 4,
                           A = 9.88 ,
                           C = 15 ,
                         nat = 32,
                        ntyp = 3,
                     ecutwfc = 40.424239707 ,
                     ecutrho = 404.24239707 ,
                 occupations = 'tetrahedra' ,
                     degauss = 0.01 ,
				   input_dft = 'vdW-DF' ,
    nspin = 2 ,
    starting_magnetization(1) = 0.5,
    starting_magnetization(2) = 0.5,
    starting_magnetization(3) = 0.5,
 /
 &ELECTRONS
            electron_maxstep = 50001,
                    conv_thr = 1.0D-6 ,
                 mixing_mode = 'local-TF' ,
                 mixing_beta = 0.5 ,
 /
ATOMIC_SPECIES
    C   12.01100  C.revpbe-n-kjpaw_psl.0.1.UPF 
   Cl   35.45200  Cl.revpbe-n-kjpaw_psl.0.3.0.UPF 
    O   15.99940  O.revpbe-n-kjpaw_psl.0.1.UPF 
ATOMIC_POSITIONS (crystal)
C        0.000436003  -0.001060839  -0.002743011
C        0.246140521  -0.007718958  -0.007136283
C        0.498503157  -0.001060839  -0.002743011
C        0.752204412   0.004408824   0.008246919
C        0.002275479   0.250116119  -0.003049671
C        0.084142720   0.165417766  -0.005879340
C        0.251590511   0.245310067  -0.008599576
C        0.327738339   0.155476678  -0.009723648
C        0.493719556   0.245310067  -0.008599576
C        0.581275045   0.165417766  -0.005879340
C        0.747840640   0.250116119  -0.003049671
C        0.834526269   0.169052539   0.000370509
C       -0.001364454   0.497271093  -0.002196898
C        0.088508748   0.415561255  -0.002501247
C        0.262152666   0.496685789  -0.000431878
C        0.344527256   0.407552466  -0.005689571
C        0.563025209   0.407552466  -0.005689571
C        0.734533123   0.496685789  -0.000431878
C        0.827052506   0.415561255  -0.002501247
C       -0.004656870   0.744500056  -0.001971671
C        0.081086232   0.662172465  -0.004084328
C        0.249156926   0.744500056  -0.001971671
C        0.335451669   0.663575138   0.006568331
C        0.498942303   0.757791676   0.019459619
Cl       0.588623735   0.677247471   0.087189296
C        0.758849374   0.757791676   0.019459619
C        0.828123468   0.663575138   0.006568331
C        0.079262900   0.911052982  -0.004016719
C        0.331790081   0.911052982  -0.004016719
C        0.585633456   0.920635303   0.008647684
C        0.835001846   0.920635303   0.008647684
O        0.619026653   0.738053307   0.183982618
K_POINTS automatic 
  20 20 1   0 0 0 

