 &CONTROL
                 calculation = 'nscf' ,
                      outdir = './tmp/' ,
                  pseudo_dir = '/home/deleted/pseudo_psl' ,
                      prefix = 'GCl_ip' ,
                   verbosity = 'high' ,
               etot_conv_thr = 1.0D-5 ,
               forc_conv_thr = 4.0D-4 ,
                       nstep = 1000 ,
                    dipfield = .true. ,
 /
 &SYSTEM
                       ibrav = 4,
                           A = 9.88 ,
                           C = 15 ,
                         nat = 34,
                        ntyp = 4,
                     ecutwfc = 40.424239707 ,
                     ecutrho = 404.24239707 ,
                 occupations = 'tetrahedra' ,
                     degauss = 0.01 ,
				   input_dft = 'vdW-DF' ,
    nspin = 2 ,
    starting_magnetization(1) = 0.5,
    starting_magnetization(2) = 0.5,
    starting_magnetization(3) = 0.5,
 /
 &ELECTRONS
            electron_maxstep = 50001,
                    conv_thr = 1.0D-6 ,
                 mixing_mode = 'local-TF' ,
                 mixing_beta = 0.5 ,
 /
ATOMIC_SPECIES
    C   12.01100  C.revpbe-n-kjpaw_psl.0.1.UPF 
   Cl   35.45200  Cl.revpbe-n-kjpaw_psl.0.3.0.UPF 
    O   15.99940  O.revpbe-n-kjpaw_psl.0.1.UPF 
    H   1.008000  H.revpbe-kjpaw_psl.0.1.UPF
ATOMIC_POSITIONS (crystal)
C        0.001434110   0.002761016  -0.001315890
C        0.254049286   0.009095076  -0.000593973
C        0.500326153   0.002715448  -0.001303209
C        0.748260686  -0.002443087  -0.002272356
C       -0.001693240   0.250242614  -0.000339526
C        0.084037296   0.170222475  -0.001130440
C        0.252672547   0.258136181  -0.002200760
C        0.337213978   0.175434504  -0.001960814
C        0.504459262   0.258093636  -0.002449160
C        0.585184943   0.170186471  -0.001290541
C        0.750946363   0.250249387  -0.000561019
C        0.831441425   0.163890070  -0.000688520
C        0.000769751   0.502511734   0.000793251
C        0.078987113   0.416785366   0.000273374
C        0.243324748   0.501876825  -0.001519750
C        0.323599351   0.422759421  -0.003489370
C        0.598137233   0.422654831  -0.004105449
C        0.757532683   0.501832216  -0.002215833
C        0.836826877   0.416794155  -0.000155154
C        0.006516459   0.756211603  -0.000132622
C        0.084778713   0.670521594   0.000782165
C        0.248742672   0.756239700   0.000068399
C        0.328009240   0.671192889  -0.001888897
C        0.487384678   0.750283112  -0.004252603
Cl       0.542860184   0.586950085  -0.006735378
C        0.761895856   0.750343698  -0.004335079
C        0.842167107   0.671171597  -0.002220196
C        0.087180555   0.922748322  -0.000542744
C        0.334580477   0.922762034  -0.000449666
C        0.581053273   0.914836021  -0.002686886
C        0.832824181   0.914912674  -0.002638354
O        0.597736625   0.559088243   0.208613939
O        0.515188622   0.639676760   0.205088506
H        0.590970637   0.529347402   0.271728906
K_POINTS automatic 
  20 20 1   0 0 0 

