 &CONTROL
                 calculation = 'bands' ,
                      outdir = './tmp/' ,
                  pseudo_dir = '/home/deleted/pseudo_psl' ,
                      prefix = 'GI_op' ,
                   verbosity = 'high' ,
               etot_conv_thr = 1.0D-5 ,
               forc_conv_thr = 4.0D-4 ,
                       nstep = 1000 ,
                    dipfield = .true. ,
 /
 &SYSTEM
                       ibrav = 4,
                           A = 9.88 ,
                           C = 15 ,
                         nat = 32,
                        ntyp = 3,
                     ecutwfc = 40.424239707 ,
                     ecutrho = 404.24239707 ,
                 occupations = 'tetrahedra' ,
                     degauss = 0.01 ,
				   input_dft = 'vdW-DF' ,
 /
 &ELECTRONS
            electron_maxstep = 50001,
                    conv_thr = 1.0D-6 ,
                 mixing_mode = 'local-TF' ,
                 mixing_beta = 0.5 ,
 /
ATOMIC_SPECIES
    C   12.01100  C.revpbe-n-kjpaw_psl.0.1.UPF 
    I  126.90400  I.revpbe-n-kjpaw_psl.0.2.UPF 
    O   15.99940  O.revpbe-n-kjpaw_psl.0.1.UPF 
ATOMIC_POSITIONS crystal 
C       -0.012935211  -0.003121225  -0.004131378
C        0.233200736  -0.013670051  -0.003923282
C        0.489969602  -0.003135415  -0.004388314
C        0.746300995   0.012114508  -0.004651059
C       -0.003687757   0.253647603  -0.004041154
C        0.073654670   0.164150118  -0.003792401
C        0.240608848   0.240801175  -0.003680392
C        0.314517385   0.148820272  -0.003515441
C        0.480511527   0.240901870  -0.003860255
C        0.570788543   0.164176561  -0.003912135
C        0.737642500   0.253596850  -0.004186855
C        0.827541486   0.174685798  -0.004143640
C       -0.010476084   0.498828127  -0.005108567
C        0.085026263   0.418496282  -0.004603093
C        0.262887913   0.496265493  -0.004904579
C        0.341270559   0.403110642  -0.004342840
C        0.542114468   0.403113962  -0.004688639
C        0.713703148   0.496370784  -0.005295666
C        0.813936165   0.418425243  -0.004840128
C       -0.024229765   0.742557880  -0.005333537
C        0.071203551   0.662302869  -0.005346846
C        0.247021170   0.742696346  -0.005125030
C        0.347199457   0.665037094  -0.005614130
C        0.518481340   0.758109299  -0.006477508
I        0.721954352   0.624752019   0.239105226
C        0.719344337   0.757833419  -0.004881073
C        0.798275864   0.664937531  -0.005936882
C        0.064564431   0.907491871  -0.004379729
C        0.323183208   0.907420184  -0.004447866
C        0.580264833   0.920209401  -0.005331517
C        0.820243915   0.920386069  -0.004687806
O        0.615917546   0.708687427   0.167133183
K_POINTS crystal_b 
4
0.0000000000    0.0000000000    0.0000000000 17
0.0000000000    0.5000000000    0.0000000000 10
0.3333333333    0.3333333333    0.0000000000 20
0.0000000000    0.0000000000    0.0000000000 1

