 &CONTROL
                 calculation = 'scf' ,
                      outdir = './tmp/' ,
                  pseudo_dir = '/home/deleted/pseudo_psl' ,
                      prefix = 'GCl_ip' ,
                   verbosity = 'high' ,
               etot_conv_thr = 1.0D-5 ,
               forc_conv_thr = 4.0D-4 ,
                       nstep = 1000 ,
                    dipfield = .true. ,
 /
 &SYSTEM
                       ibrav = 4,
                           A = 9.88 ,
                           C = 15 ,
                         nat = 34,
                        ntyp = 4,
                     ecutwfc = 40.424239707 ,
                     ecutrho = 404.24239707 ,
                 occupations = 'smearing' ,
                     degauss = 0.01 ,
				   input_dft = 'vdW-DF' ,
 /
 &ELECTRONS
            electron_maxstep = 50001,
                    conv_thr = 1.0D-6 ,
                 mixing_mode = 'local-TF' ,
                 mixing_beta = 0.5 ,
 /
ATOMIC_SPECIES
    C   12.01100  C.revpbe-n-kjpaw_psl.0.1.UPF 
   Cl   35.45200  Cl.revpbe-n-kjpaw_psl.0.3.0.UPF 
    O   15.99940  O.revpbe-n-kjpaw_psl.0.1.UPF 
    H   1.008000  H.revpbe-kjpaw_psl.0.1.UPF
ATOMIC_POSITIONS crystal 
C        0.001390753   0.003305213   0.015212175
C        0.250326449   0.002077648   0.013347142
C        0.499547254   0.000430344   0.002162904
C        0.750545717   0.000311379   0.001613278
C        0.000828979   0.251729107   0.001783900
C        0.084551493   0.169216498   0.004468690
C        0.252817430   0.254297175   0.002857793
C        0.334714314   0.168643290   0.017242129
C        0.500122590   0.246735177   0.029988077
C        0.583696713   0.166165178   0.014660324
C        0.749959930   0.250749371   0.011082914
C        0.833114521   0.167410858   0.003600041
C       -0.000968448   0.501610335   0.006346360
C        0.082811672   0.418328020  -0.003434953
C        0.249716678   0.499776150  -0.017252366
C        0.326977913   0.413562283  -0.016903650
C        0.586815496   0.403305234   0.064713632
C        0.752025571   0.500879252   0.041564493
C        0.832582087   0.418121925   0.017437442
C        0.000655815   0.751273528   0.022681781
C        0.083399331   0.668084359   0.009786855
C        0.250213987   0.751869961  -0.001106087
C        0.332316507   0.670193215  -0.022812510
C        0.493141490   0.761636094  -0.042483354
Cl       0.581601803   0.684831838  -0.111938867
C        0.762325308   0.763772289   0.058558760
C        0.837240453   0.668735246   0.042895808
C        0.084318479   0.918976795   0.017913679
C        0.333458102   0.917845751   0.005228472
C        0.582726256   0.918772330  -0.013689796
C        0.836008412   0.921942138   0.020030911
O        0.642613770   0.719780775   0.107134618
O        0.521074429   0.436495052   0.132389470
H        0.572937207   0.556746329   0.136602366
K_POINTS automatic 
  16 16 1   0 0 0 

