 &CONTROL
                 calculation = 'relax' ,
                      outdir = './tmp/' ,
                  pseudo_dir = '/home/deleted/pseudo_psl' ,
                      prefix = 'GCl_ip' ,
                   verbosity = 'high' ,
               etot_conv_thr = 1.0D-5 ,
               forc_conv_thr = 4.0D-4 ,
                       nstep = 1000 ,
                    dipfield = .true. ,
 /
 &SYSTEM
                       ibrav = 4,
                           A = 9.88 ,
                           C = 15 ,
                         nat = 34,
                        ntyp = 4,
                     ecutwfc = 40.424239707 ,
                     ecutrho = 404.24239707 ,
                 occupations = 'smearing' ,
                     degauss = 0.01 ,
				   input_dft = 'vdW-DF' ,
 /
 &ELECTRONS
            electron_maxstep = 50001,
                    conv_thr = 1.0D-6 ,
                 mixing_mode = 'local-TF' ,
                 mixing_beta = 0.5 ,
 /
 &IONS
                ion_dynamics = 'bfgs' ,
 /
ATOMIC_SPECIES
    C   12.01100  C.revpbe-n-kjpaw_psl.0.1.UPF 
   Cl   35.45200  Cl.revpbe-n-kjpaw_psl.0.3.0.UPF 
    O   15.99940  O.revpbe-n-kjpaw_psl.0.1.UPF 
    H   1.008000  H.revpbe-kjpaw_psl.0.1.UPF
ATOMIC_POSITIONS crystal 
C        0.005148909   0.006382729   0.009691058
C        0.250168316  -0.004058001   0.012559302
C        0.503303064   0.000903568   0.001574818
C        0.758262677   0.009662007  -0.000908261
C        0.008137289   0.258794053   0.008608983
C        0.088815291   0.172452568   0.006140400
C        0.253916809   0.248648670   0.004038440
C        0.333293234   0.160397542   0.008318388
C        0.497448395   0.246572565   0.016012167
C        0.585432911   0.168558701   0.010123034
C        0.752582077   0.256247933   0.008418343
C        0.840173729   0.177024273   0.003360019
C        0.001120083   0.504683823   0.010572399
C        0.091732158   0.424462706   0.007544198
C        0.261966348   0.501834601  -0.000952517
C        0.340343007   0.411256587  -0.001222343
C        0.561048408   0.411412157   0.033843505
C        0.740273852   0.505872237   0.027611012
C        0.829842620   0.422014394   0.014832528
C        0.000636904   0.750980361   0.020938014
C        0.086317359   0.669716354   0.012512195
C        0.253973633   0.749952016   0.003881146
C        0.339846541   0.669805705  -0.011108882
C        0.499164156   0.762419401  -0.036895838
Cl       0.569079070   0.672561555  -0.110266754
C        0.770367241   0.775100588   0.055916492
C        0.834105975   0.669321786   0.031371954
C        0.085109972   0.917427891   0.016962932
C        0.336657783   0.914914967   0.006033261
C        0.589293967   0.921457331  -0.013159606
C        0.841635643   0.929933027   0.013987965
O        0.680233768   0.745350455   0.117826129
O        0.450933189   0.418199204   0.126254238
H        0.545244080   0.497346385   0.157263709
K_POINTS automatic 
  4 4 1   0 0 0 

