 &CONTROL
                 calculation = 'bands' ,
                      outdir = './tmp/' ,
                  pseudo_dir = '/home/deleted/pseudo_psl' ,
                      prefix = 'GBr_op' ,
                   verbosity = 'high' ,
               etot_conv_thr = 1.0D-5 ,
               forc_conv_thr = 4.0D-4 ,
                       nstep = 1000 ,
                    dipfield = .true. ,
 /
 &SYSTEM
                       ibrav = 4,
                           A = 9.88 ,
                           C = 15 ,
                         nat = 33,
                        ntyp = 3,
                     ecutwfc = 40.424239707 ,
                     ecutrho = 404.24239707 ,
                 occupations = 'tetrahedra' ,
                     degauss = 0.01 ,
				   input_dft = 'vdW-DF' ,
 /
 &ELECTRONS
            electron_maxstep = 50001,
                    conv_thr = 1.0D-6 ,
                 mixing_mode = 'local-TF' ,
                 mixing_beta = 0.5 ,
 /
ATOMIC_SPECIES
    C   12.01100  C.revpbe-n-kjpaw_psl.0.1.UPF 
   Br   79.90350  Br.revpbe-n-kjpaw_psl.0.2.UPF 
    O   15.99940  O.revpbe-n-kjpaw_psl.0.1.UPF 
ATOMIC_POSITIONS crystal 
C       -0.001779874  -0.000669198  -0.004593293
C        0.244515712  -0.010968576  -0.004245202
C        0.501110675  -0.000669198  -0.004593293
C        0.757292090   0.014584179  -0.004974027
C        0.007337474   0.255985854  -0.003586945
C        0.084630112   0.166549170  -0.003841768
C        0.251611187   0.243271288  -0.003644882
C        0.325634840   0.151269681  -0.003777501
C        0.491660101   0.243271288  -0.003644882
C        0.581919057   0.166549170  -0.003841768
C        0.748648380   0.255985854  -0.003586945
C        0.838401803   0.176803609  -0.003895584
C        0.000715436   0.501430873  -0.003851104
C        0.095875359   0.420794842  -0.003633536
C        0.273438869   0.498643739  -0.004131252
C        0.351595115   0.405390969  -0.003755961
C        0.553795853   0.405390969  -0.003755961
C        0.725204870   0.498643739  -0.004131252
C        0.824919484   0.420794842  -0.003633536
C       -0.012855633   0.745220113  -0.004832568
C        0.082313483   0.664626968  -0.004545580
C        0.258075747   0.745220113  -0.004832568
C        0.357878631   0.667520243  -0.005120299
C        0.529042406   0.760686174  -0.005923525
Br       0.569195328   0.638390657   0.233242576
C        0.731643769   0.760686174  -0.005923525
C        0.809641611   0.667520243  -0.005120299
C        0.075590074   0.909954116  -0.004596322
C        0.334364041   0.909954116  -0.004596322
C        0.591316264   0.922668642  -0.005419082
C        0.831352377   0.922668642  -0.005419082
O        0.755170717   0.852582022   0.215769309
O        0.597411305   0.852582022   0.215769309
K_POINTS crystal_b 
4
0.0000000000    0.0000000000    0.0000000000 17
0.0000000000    0.5000000000    0.0000000000 10
0.3333333333    0.3333333333    0.0000000000 20
0.0000000000    0.0000000000    0.0000000000 1

