 &CONTROL
                 calculation = 'scf' ,
                      outdir = './tmp/' ,
                  pseudo_dir = '/home/deleted/pseudo_psl' ,
                      prefix = 'GI_ip' ,
                   verbosity = 'high' ,
               etot_conv_thr = 1.0D-5 ,
               forc_conv_thr = 4.0D-4 ,
                       nstep = 1000 ,
                    dipfield = .true. ,
 /
 &SYSTEM
                       ibrav = 4,
                           A = 9.88 ,
                           C = 15 ,
                         nat = 34,
                        ntyp = 4,
                     ecutwfc = 40.424239707 ,
                     ecutrho = 404.24239707 ,
                 occupations = 'smearing' ,
                     degauss = 0.01 ,
				   input_dft = 'vdW-DF' ,
 /
 &ELECTRONS
            electron_maxstep = 50001,
                    conv_thr = 1.0D-6 ,
                 mixing_mode = 'local-TF' ,
                 mixing_beta = 0.5 ,
 /
ATOMIC_SPECIES
    C   12.01100  C.revpbe-n-kjpaw_psl.0.1.UPF 
    I  126.90400  I.revpbe-n-kjpaw_psl.0.2.UPF 
    O   15.99940  O.revpbe-n-kjpaw_psl.0.1.UPF 
    H   1.008000  H.revpbe-kjpaw_psl.0.1.UPF
ATOMIC_POSITIONS crystal 
C        0.006347310   0.002480023   0.005949174
C        0.258947342   0.009633174   0.009352314
C        0.504434259   0.002212138   0.005635449
C        0.752348440  -0.003370217  -0.003559210
C        0.001926872   0.248805578   0.012055837
C        0.087989518   0.169346073   0.005125563
C        0.254649848   0.256141804  -0.006631421
C        0.341474707   0.174852300  -0.004175173
C        0.509710109   0.255958670  -0.005034859
C        0.589632221   0.169069216   0.006186154
C        0.755098015   0.248683499   0.013274163
C        0.835104451   0.161939210   0.009599892
C        0.005042111   0.501576862   0.026848441
C        0.082573661   0.415509801   0.018345739
C        0.243949755   0.500495034   0.001562870
C        0.318913189   0.418698700  -0.018064763
C        0.607468574   0.418707275  -0.013763322
C        0.764155746   0.500334910   0.005568696
C        0.841059972   0.415338025   0.020494534
C        0.011489496   0.756177220   0.020481480
C        0.089142226   0.669919381   0.026977008
C        0.252835497   0.755922088   0.018822095
C        0.329118364   0.670834370   0.002178340
C        0.486536576   0.752450245  -0.015967677
I        0.547711115   0.586047560  -0.058078715
C        0.774197008   0.752665624  -0.013203433
C        0.849393911   0.671031025   0.005792500
C        0.092088809   0.922758293   0.013049256
C        0.338805829   0.922720952   0.012435255
C        0.584451877   0.915596935  -0.005645386
C        0.839502498   0.915602308  -0.004735951
O        0.563792582   0.611480011   0.125150304
O        0.418739821   0.552685178   0.174391755
H        0.434291646   0.647150266   0.204763403
K_POINTS automatic 
  16 16 1   0 0 0 

