&CONTROL
	calculation = 'nscf' ,
	outdir = './tmp/' ,
	pseudo_dir = '/home/deleted/pseudo_psl' ,
	prefix = 'GCl_op' ,
	verbosity = 'high' ,
	etot_conv_thr = 1.0D-5 ,
	forc_conv_thr = 4.0D-4 ,
	nstep = 1000 ,
	dipfield = .true. ,
/
&SYSTEM
	ibrav = 4,
	A = 9.88 ,
	C = 15 ,
	nat = 31,
	ntyp = 2,
	ecutwfc = 40.424239707 ,
	ecutrho = 404.24239707 ,
	occupations = 'tetrahedra' ,
	degauss = 0.01 ,
    input_dft = 'vdW-DF' ,
/
&ELECTRONS
	electron_maxstep = 50001,
	conv_thr = 1.0D-6 ,
	mixing_mode = 'local-TF' ,
	mixing_beta = 0.5 ,
/
ATOMIC_SPECIES
	C	12.01100	C.revpbe-n-kjpaw_psl.0.1.UPF 
	Cl	35.45200	Cl.revpbe-n-kjpaw_psl.0.3.0.UPF  
ATOMIC_POSITIONS crystal 
C        0.001868299   0.002041610   0.009502812
C        0.241509693  -0.016980613   0.049216924
C        0.500173311   0.002041610   0.009502812
C        0.751055188   0.002110377  -0.000016962
C        0.001880209   0.252015678  -0.004416710
C        0.087986276   0.169319633  -0.001397845
C        0.254152303   0.265004597  -0.010847542
Cl       0.301448642   0.102897285   0.144675262
C        0.510852294   0.265004597  -0.010847542
C        0.581333356   0.169319633  -0.001397845
C        0.750135469   0.252015678  -0.004416710
C        0.834346469   0.168692939  -0.001611342
C        0.001336987   0.502673975  -0.006441012
C        0.083304583   0.418951622  -0.007817857
C        0.249701098   0.506447801  -0.009677022
C        0.319273378   0.415130883  -0.011874138
C        0.595857504   0.415130883  -0.011874138
C        0.756746704   0.506447801  -0.009677022
C        0.835647039   0.418951622  -0.007817857
C        0.002195209   0.752863955   0.001065470
C        0.084140404   0.668280809  -0.001270853
C        0.250668746   0.752863955   0.001065470
C        0.333896486   0.671471672  -0.005957888
C        0.501510238   0.748730535  -0.002687867
C        0.582162074   0.664324150  -0.007091927
C        0.747220297   0.748730535  -0.002687867
C        0.837575184   0.671471672  -0.005957888
C        0.083856401   0.917057391   0.019854393
C        0.333200988   0.917057391   0.019854393
C        0.584063167   0.918298498   0.002190817
C        0.834235330   0.918298498   0.002190817
K_POINTS automatic 
	20 20 1   0 0 0 
