 &CONTROL
                 calculation = 'bands' ,
                      outdir = './tmp/' ,
                  pseudo_dir = '/home/deleted/pseudo_psl' ,
                      prefix = 'GI_ip' ,
                   verbosity = 'high' ,
               etot_conv_thr = 1.0D-5 ,
               forc_conv_thr = 4.0D-4 ,
                       nstep = 1000 ,
                    dipfield = .true. ,
 /
 &SYSTEM
                       ibrav = 4,
                           A = 9.88 ,
                           C = 15 ,
                         nat = 33,
                        ntyp = 3,
                     ecutwfc = 40.424239707 ,
                     ecutrho = 404.24239707 ,
                 occupations = 'tetrahedra' ,
                     degauss = 0.01 ,
				   input_dft = 'vdW-DF' ,
 /
 &ELECTRONS
            electron_maxstep = 50001,
                    conv_thr = 1.0D-6 ,
                 mixing_mode = 'local-TF' ,
                 mixing_beta = 0.5 ,
 /
ATOMIC_SPECIES
    C   12.01100  C.revpbe-n-kjpaw_psl.0.1.UPF 
    I  126.90400  I.revpbe-n-kjpaw_psl.0.2.UPF 
    O   15.99940  O.revpbe-n-kjpaw_psl.0.1.UPF 
ATOMIC_POSITIONS crystal 
C        0.005845029   0.009823521   0.004764527
C        0.258519836   0.017039671   0.008766003
C        0.503978492   0.009823521   0.004764527
C        0.752183262   0.004366525  -0.004728836
C        0.001676582   0.256488874   0.012130080
C        0.087584913   0.176899415   0.005208129
C        0.254580178   0.263677698  -0.005567059
C        0.341126298   0.182252598  -0.004161327
C        0.509097520   0.263677698  -0.005567059
C        0.589314501   0.176899415   0.005208129
C        0.754812292   0.256488874   0.012130080
C        0.834833579   0.169667159   0.008748109
C        0.004715837   0.509431673   0.026746500
C        0.082451650   0.423280083   0.019290728
C        0.244259378   0.508377458   0.003706184
C        0.319985250   0.426874408  -0.014608309
C        0.606889156   0.426874408  -0.014608309
C        0.764118080   0.508377458   0.003706184
C        0.840828432   0.423280083   0.019290728
C        0.010937375   0.763514496   0.018969967
C        0.088696867   0.677393735   0.026844104
C        0.252577121   0.763514496   0.018969967
C        0.329199315   0.678699444   0.002830174
C        0.486067883   0.760386364  -0.017030995
I        0.546725903   0.593451806  -0.061572538
C        0.774318481   0.760386364  -0.017030995
C        0.849500128   0.678699444   0.002830174
C        0.091694348   0.930273607   0.011847394
C        0.338579259   0.930273607   0.011847394
C        0.584216257   0.923223394  -0.006913116
C        0.839007136   0.923223394  -0.006913116
O        0.643144881   0.786289759   0.183400097
O        0.575201445   0.650402889   0.146702475
K_POINTS crystal_b 
4
0.0000000000    0.0000000000    0.0000000000 17
0.0000000000    0.5000000000    0.0000000000 10
0.3333333333    0.3333333333    0.0000000000 20
0.0000000000    0.0000000000    0.0000000000 1

