 &CONTROL
                 calculation = 'scf' ,
                      outdir = './tmp/' ,
                  pseudo_dir = '/home/deleted/pseudo_psl' ,
                      prefix = 'MVG_tv' ,
                    dipfield = .true. ,
                   verbosity = 'high',
                       nstep = 1000,
               forc_conv_thr = 4.0D-4,
               etot_conv_thr = 1.0D-5
 /
 &SYSTEM
                       ibrav = 4,
                           A = 9.88 ,
                           C = 15 ,
                         nat = 33,
                        ntyp = 2,
                     ecutwfc = 40.424239707 ,
                     ecutrho = 404.24239707 ,
                 occupations = 'smearing' ,
                     degauss = 0.01 ,
				   input_dft = 'vdW-DF' ,
    nspin = 2 ,
    starting_magnetization(1) = 0.5,
	starting_magnetization(2) = 0.5,
 /
 &ELECTRONS
            electron_maxstep = 50001,
                    conv_thr = 1.0D-6 ,
                 mixing_mode = 'local-TF' ,
                 mixing_beta = 0.5 ,
 /
ATOMIC_SPECIES
    C   12.01100  C.revpbe-n-kjpaw_psl.0.1.UPF 
    O   15.99940  O.revpbe-n-kjpaw_psl.0.1.UPF 
ATOMIC_POSITIONS crystal 
C       -0.001387900  -0.003307954   0.000811756
C        0.247129516  -0.005740967  -0.006451699
C        0.498079947  -0.003307954   0.000811756
C        0.750267841   0.000535682   0.012680039
C       -0.000283404   0.247555511  -0.001248519
C        0.080914320   0.162640232  -0.004227638
C        0.246495107   0.242911533  -0.011985394
C        0.329232952   0.158465903  -0.012709304
C        0.496416426   0.242911533  -0.011985394
C        0.581725911   0.162640232  -0.004227638
C        0.747838916   0.247555511  -0.001248519
C        0.832193894   0.164387789   0.003086667
C       -0.001741483   0.496517033   0.000571615
C        0.084347377   0.413609978  -0.000967799
C        0.253733108   0.496013956  -0.001141198
C        0.329308737   0.406493303  -0.013435818
C        0.577184565   0.406493303  -0.013435818
C        0.742280849   0.496013956  -0.001141198
C        0.829262600   0.413609978  -0.000967799
C       -0.004151090   0.745329769   0.000856267
C        0.081011341   0.662022682  -0.001267569
C        0.249480859   0.745329769   0.000856267
C        0.336309661   0.664444398   0.009399805
C        0.499271129   0.752817580   0.026001129
C        0.594535436   0.689070873   0.065941943
C        0.753546451   0.752817580   0.026001129
C        0.828134737   0.664444398   0.009399805
C        0.079977622   0.911701355  -0.001593000
C        0.331723732   0.911701355  -0.001593000
C        0.582156652   0.916070043   0.013490808
C        0.833913390   0.916070043   0.013490808
O        0.553968985   0.607937970   0.133942258
O        0.490455148   0.480910297  -0.027714743
K_POINTS automatic 
  16 16 1   0 0 0 

