 &CONTROL
                 calculation = 'scf' ,
                      outdir = './tmp/' ,
                  pseudo_dir = '/home/deleted/pseudo_psl' ,
                      prefix = 'MVG_tc' ,
                    dipfield = .true. ,
                   verbosity = 'high',
                       nstep = 1000,
               forc_conv_thr = 4.0D-4,
               etot_conv_thr = 1.0D-5
 /
 &SYSTEM
                       ibrav = 4,
                           A = 9.88 ,
                           C = 15 ,
                         nat = 33,
                        ntyp = 2,
                     ecutwfc = 40.424239707 ,
                     ecutrho = 404.24239707 ,
                 occupations = 'smearing' ,
                     degauss = 0.01 ,
				   input_dft = 'vdW-DF' ,
    nspin = 2 ,
    starting_magnetization(1) = 0.5,
	starting_magnetization(2) = 0.5,
 /
 &ELECTRONS
            electron_maxstep = 50001,
                    conv_thr = 1.0D-6 ,
                 mixing_mode = 'local-TF' ,
                 mixing_beta = 0.5 ,
 /
ATOMIC_SPECIES
    C   12.01100  C.revpbe-n-kjpaw_psl.0.1.UPF 
    O   15.99940  O.revpbe-n-kjpaw_psl.0.1.UPF 
ATOMIC_POSITIONS crystal 
C       -0.000797189  -0.000116278  -0.006953459
C        0.246141630  -0.004739096  -0.005838548
C        0.497660998  -0.000127776  -0.007608706
C        0.749759654   0.002573672  -0.010366792
C        0.000446819   0.250682793  -0.003114141
C        0.082944444   0.166661424  -0.004468225
C        0.250890554   0.248079078  -0.003169901
C        0.328151176   0.159254768  -0.004099778
C        0.494234961   0.248024193  -0.003197026
C        0.580735504   0.166602309  -0.004619293
C        0.747263309   0.250646039  -0.003079780
C        0.832856097   0.168679932  -0.005082314
C       -0.001983194   0.498950605  -0.002295425
C        0.086067049   0.416516947  -0.001932341
C        0.258534714   0.499182592  -0.002665620
C        0.338890612   0.410654825   0.000718199
C        0.568804808   0.410558509   0.000937672
C        0.737700032   0.499090564  -0.002048722
C        0.827523134   0.416468537  -0.001659514
C       -0.004883514   0.746577883  -0.005676184
C        0.080684151   0.664281671  -0.003394452
C        0.248508601   0.746575124  -0.006300081
C        0.333811909   0.665629290  -0.009461279
C        0.500298899   0.752100355  -0.018206130
C        0.589131422   0.681137095  -0.031342456
C        0.748670770   0.751964880  -0.016967760
C        0.828830689   0.665590018  -0.008330466
C        0.079330133   0.913479535  -0.006679680
C        0.331158590   0.913465377  -0.007157397
C        0.583231621   0.919354114  -0.012004311
C        0.833040128   0.919318951  -0.011068021
O        0.534107299   0.823192756   0.206601788
O        0.520129738   0.691200423   0.200530143
K_POINTS automatic 
  16 16 1   0 0 0 

