&INPUTPP
          outdir = './tmp/'
          prefix = 'MVG_tc'
          filplot = 'MVG_tc-dens'
          plot_num = 0,
          spin_component = 0
/
&PLOT
          nfile = 1
          filepp(1) = 'MVG_tc-dens'
          weight(1) = 1.0,
          fileout = 'MVG_tc-dens.xsf'
          iflag = 3
          output_format = 5
/
