 &CONTROL
                 calculation = 'bands' ,
                      outdir = './tmp/' ,
                  pseudo_dir = '/home/deleted/pseudo_psl' ,
                      prefix = 'GBr_op' ,
                   verbosity = 'high' ,
               etot_conv_thr = 1.0D-5 ,
               forc_conv_thr = 4.0D-4 ,
                       nstep = 1000 ,
                    dipfield = .true. ,
 /
 &SYSTEM
                       ibrav = 4,
                           A = 9.88 ,
                           C = 15 ,
                         nat = 34,
                        ntyp = 4,
                     ecutwfc = 40.424239707 ,
                     ecutrho = 404.24239707 ,
                 occupations = 'tetrahedra' ,
                     degauss = 0.01 ,
				   input_dft = 'vdW-DF' ,
    nspin = 2 ,
    starting_magnetization(1) = 0.5,
    starting_magnetization(2) = 0.5,
    starting_magnetization(3) = 0.5,
 /
 &ELECTRONS
            electron_maxstep = 50001,
                    conv_thr = 1.0D-6 ,
                 mixing_mode = 'local-TF' ,
                 mixing_beta = 0.5 ,
 /
ATOMIC_SPECIES
    C   12.01100  C.revpbe-n-kjpaw_psl.0.1.UPF 
   Br   79.90350  Br.revpbe-n-kjpaw_psl.0.2.UPF 
    O   15.99940  O.revpbe-n-kjpaw_psl.0.1.UPF 
    H   1.008000  H.revpbe-kjpaw_psl.0.1.UPF
ATOMIC_POSITIONS (crystal)
C       -0.001909145  -0.000640633  -0.007862113
C        0.244326392  -0.011005245  -0.007538321
C        0.500928062  -0.000648878  -0.007784731
C        0.757307150   0.014945986  -0.008196214
C        0.007405903   0.256169755  -0.007310482
C        0.084596008   0.166695810  -0.007403345
C        0.251542855   0.243307118  -0.007181608
C        0.325369991   0.151079159  -0.007256895
C        0.491430336   0.243298679  -0.007202427
C        0.581765188   0.166685327  -0.007383548
C        0.748438626   0.256156328  -0.007289460
C        0.838353097   0.177024683  -0.007518202
C        0.000660226   0.501599022  -0.007371234
C        0.096025274   0.420908429  -0.007258851
C        0.273399164   0.498571130  -0.007441482
C        0.351771539   0.405324641  -0.007225007
C        0.553257201   0.405317647  -0.007241057
C        0.724893925   0.498557712  -0.007484913
C        0.824595075   0.420897086  -0.007277700
C       -0.013313562   0.745111439  -0.007881347
C        0.082067044   0.664429055  -0.007672680
C        0.258121620   0.745119190  -0.007854194
C        0.357787804   0.667456256  -0.008018133
C        0.529357565   0.760746840  -0.008510671
Br       0.645217217   0.748134936   0.224685131
C        0.731053216   0.760728515  -0.008608035
C        0.809376230   0.667434478  -0.008090504
C        0.075263203   0.909866394  -0.007777051
C        0.334260106   0.909864104  -0.007738898
C        0.591270322   0.922757643  -0.008329719
C        0.831158488   0.922758690  -0.008433177
O        0.599771103   0.700546727   0.489623969
O        0.495711458   0.715649798   0.526420085
H        0.643020907   0.745532111   0.320677410
K_POINTS automatic 
  20 20 1   0 0 0 

