 &CONTROL
                 calculation = 'scf' ,
                      outdir = './tmp_subs/' ,
                  pseudo_dir = '/home/deleted/pseudo_psl' ,
                      prefix = 'GI_op-subs' ,
                   verbosity = 'high' ,
               etot_conv_thr = 1.0D-5 ,
               forc_conv_thr = 4.0D-4 ,
                       nstep = 1000 ,
                    dipfield = .true. ,
 /
 &SYSTEM
                       ibrav = 4,
                           A = 9.88 ,
                           C = 15 ,
                         nat = 31,
                        ntyp = 2,
                     ecutwfc = 40.424239707 ,
                     ecutrho = 404.24239707 ,
                 occupations = 'smearing' ,
                     degauss = 0.01 ,
				   input_dft = 'vdW-DF' ,
    nspin = 2 ,
    starting_magnetization(1) = 0.5,
    starting_magnetization(2) = 0.5,
 /
 &ELECTRONS
            electron_maxstep = 50001,
                    conv_thr = 1.0D-6 ,
                 mixing_mode = 'local-TF' ,
                 mixing_beta = 0.5 ,
 /
ATOMIC_SPECIES
    C   12.01100  C.revpbe-n-kjpaw_psl.0.1.UPF 
    I  126.90400  I.revpbe-n-kjpaw_psl.0.2.UPF 
ATOMIC_POSITIONS (crystal)
C        0.000212934  -0.000077556  -0.003244792
C        0.246396441  -0.010343299  -0.003312803
C        0.502907467  -0.000073212  -0.003213213
C        0.759113848   0.014977760  -0.003029482
C        0.009093445   0.256492836  -0.003188551
C        0.086484857   0.167076600  -0.002960482
C        0.253478908   0.243885799  -0.003272393
C        0.327643892   0.152055410  -0.003029776
C        0.493654846   0.243917662  -0.003341878
C        0.583808053   0.167110402  -0.003058911
C        0.750606689   0.256527466  -0.003222481
C        0.840284697   0.177393845  -0.002846679
C        0.002466252   0.501818149  -0.004547054
C        0.097470733   0.421282347  -0.004206504
C        0.275119503   0.499128537  -0.004845962
C        0.353148973   0.406015524  -0.004257961
C        0.556214963   0.406055111  -0.004294653
C        0.727283682   0.499165312  -0.004965392
C        0.826966036   0.421300653  -0.004259705
C       -0.010707055   0.745786294  -0.004860631
C        0.084206406   0.665256982  -0.004826164
C        0.259737668   0.745763202  -0.004542976
C        0.359541664   0.667926089  -0.005004937
C        0.530664457   0.761019288  -0.004496561
I        0.772084923   0.656690766   0.244037539
C        0.733816774   0.761106821  -0.004783013
C        0.811771407   0.667943870  -0.005291813
C        0.077620751   0.910540295  -0.003780839
C        0.336119526   0.910545778  -0.003666900
C        0.593109159   0.923129352  -0.003451570
C        0.833293108   0.923180544  -0.003719690
K_POINTS automatic 
  16 16 1   0 0 0 

