 &CONTROL
                 calculation = 'scf' ,
                      outdir = './tmp/' ,
                  pseudo_dir = '/home/deleted/pseudo_psl' ,
                      prefix = 'GBr_op' ,
                   verbosity = 'high' ,
               etot_conv_thr = 1.0D-5 ,
               forc_conv_thr = 4.0D-4 ,
                       nstep = 1000 ,
                    dipfield = .true. ,
 /
 &SYSTEM
                       ibrav = 4,
                           A = 9.88 ,
                           C = 15 ,
                         nat = 33,
                        ntyp = 3,
                     ecutwfc = 40.424239707 ,
                     ecutrho = 404.24239707 ,
                 occupations = 'smearing' ,
                     degauss = 0.01 ,
				   input_dft = 'vdW-DF' ,
 /
 &ELECTRONS
            electron_maxstep = 50001,
                    conv_thr = 1.0D-6 ,
                 mixing_mode = 'local-TF' ,
                 mixing_beta = 0.5 ,
 /
ATOMIC_SPECIES
    C   12.01100  C.revpbe-n-kjpaw_psl.0.1.UPF 
   Br   79.90350  Br.revpbe-n-kjpaw_psl.0.2.UPF 
    O   15.99940  O.revpbe-n-kjpaw_psl.0.1.UPF 
ATOMIC_POSITIONS crystal 
C       -0.002041433  -0.001266284  -0.003951262
C        0.244230153  -0.011539694  -0.003313428
C        0.500775149  -0.001266284  -0.003951262
C        0.756935518   0.013871035  -0.004628381
C        0.006973843   0.255335753  -0.004278347
C        0.084322054   0.165922117  -0.003968999
C        0.251315008   0.242702964  -0.004052316
C        0.325398832   0.150797666  -0.003521181
C        0.491387956   0.242702964  -0.004052316
C        0.581600062   0.165922117  -0.003968999
C        0.748361910   0.255335753  -0.004278347
C        0.838101682   0.176203366  -0.004303293
C        0.000351129   0.500702259  -0.004550530
C        0.095460374   0.420141728  -0.004551746
C        0.273046707   0.497965601  -0.004875089
C        0.351092511   0.404759097  -0.004981848
C        0.553666586   0.404759097  -0.004981848
C        0.724918894   0.497965601  -0.004875089
C        0.824681355   0.420141728  -0.004551746
C       -0.013090585   0.744586202  -0.004191109
C        0.082020324   0.664040649  -0.004316120
C        0.257676787   0.744586202  -0.004191109
C        0.357483425   0.666795100  -0.004812335
C        0.528658054   0.759928984  -0.005067963
Br       0.631249798   0.762499597   0.244415148
C        0.731270930   0.759928984  -0.005067963
C        0.809311674   0.666795100  -0.004812335
C        0.075363753   0.909352928  -0.003631482
C        0.333989174   0.909352928  -0.003631482
C        0.590965008   0.921986264  -0.004698079
C        0.831021255   0.921986264  -0.004698079
O        0.512422291   0.524844582   0.184089725
O        0.454413151   0.408826302   0.235582540
K_POINTS automatic 
  16 16 1   0 0 0 

