 &CONTROL
                 calculation = 'bands' ,
                      outdir = './tmp/' ,
                  pseudo_dir = '/home/deleted/pseudo_psl' ,
                      prefix = 'PG_tlh' ,
                    dipfield = .true. ,
                   verbosity = 'high',
                       nstep = 1000,
               forc_conv_thr = 4.0D-4,
               etot_conv_thr = 1.0D-5
 /
 &SYSTEM
                       ibrav = 4,
                           A = 9.88 ,
                           C = 15 ,
                         nat = 33,
                        ntyp = 2,
                     ecutwfc = 40.424239707 ,
                     ecutrho = 404.24239707 ,
                 occupations = 'tetrahedra' ,
                     degauss = 0.01 ,
				   input_dft = 'vdW-DF' ,
    nspin = 2 ,
    starting_magnetization(1) = 0.5,
	starting_magnetization(2) = 0.5,
 /
 &ELECTRONS
            electron_maxstep = 50001,
                    conv_thr = 1.0D-6 ,
                 mixing_mode = 'local-TF' ,
                 mixing_beta = 0.5 ,
 /
ATOMIC_SPECIES
    C   12.01100  C.revpbe-n-kjpaw_psl.0.1.UPF 
    O   15.99940  O.revpbe-n-kjpaw_psl.0.1.UPF 
ATOMIC_POSITIONS crystal 
C       -0.000009725   0.000008753  -0.002847003
C        0.250032814   0.000012967  -0.002843104
C        0.499998270  -0.000040007  -0.002987867
C        0.749970378  -0.000043037  -0.002990390
C        0.000045171   0.250034446  -0.002983737
C        0.083371990   0.166711346  -0.002985841
C        0.250064034   0.250115750  -0.003229980
C        0.333338272   0.166708071  -0.002987232
C        0.499999594   0.250035881  -0.002990472
C        0.583310616   0.166653328  -0.002846822
C        0.750008176   0.250003811  -0.002808878
C        0.833346384   0.166656115  -0.002843976
C        0.000046695   0.500009446  -0.002984360
C        0.083457339   0.416726863  -0.003224136
C        0.250066014   0.500033345  -0.003635743
C        0.333368712   0.416730478  -0.003643042
C        0.499970029   0.500032902  -0.003654211
C        0.583279736   0.416723225  -0.003239305
C        0.749967854   0.500009627  -0.002992849
C        0.833347380   0.416686655  -0.002845953
C       -0.000008765   0.749979588  -0.002846184
C        0.083366872   0.666656265  -0.002984533
C        0.250068389   0.749944525  -0.003226140
C        0.333368011   0.666634472  -0.003639050
C        0.499968237   0.749933269  -0.003650392
C        0.583280427   0.666638689  -0.003657871
C        0.749876314   0.749937736  -0.003242314
C        0.833303575   0.666658262  -0.002993522
C        0.083332950   0.916664725  -0.002808642
C        0.333338416   0.916631219  -0.002984677
C        0.583279873   0.916554161  -0.003235537
C        0.833300988   0.916640936  -0.002993008
O        0.416544974   0.583316196   0.199826768
K_POINTS crystal_b 
4
0.0000000000    0.0000000000    0.0000000000 17
0.0000000000    0.5000000000    0.0000000000 10
0.3333333333    0.3333333333    0.0000000000 20
0.0000000000    0.0000000000    0.0000000000 1

