 &CONTROL
                 calculation = 'scf' ,
                      outdir = './tmp/' ,
                  pseudo_dir = '/home/deleted/pseudo_psl' ,
                      prefix = 'GBr_ip' ,
                   verbosity = 'high' ,
               etot_conv_thr = 1.0D-5 ,
               forc_conv_thr = 4.0D-4 ,
                       nstep = 1000 ,
                    dipfield = .true. ,
 /
 &SYSTEM
                       ibrav = 4,
                           A = 9.88 ,
                           C = 15 ,
                         nat = 33,
                        ntyp = 3,
                     ecutwfc = 40.424239707 ,
                     ecutrho = 404.24239707 ,
                 occupations = 'smearing' ,
                     degauss = 0.01 ,
				   input_dft = 'vdW-DF' ,
    nspin = 2 ,
    starting_magnetization(1) = 0.5,
    starting_magnetization(2) = 0.5,
    starting_magnetization(3) = -0.9,
 /
 &ELECTRONS
            electron_maxstep = 50001,
                    conv_thr = 1.0D-6 ,
                 mixing_mode = 'local-TF' ,
                 mixing_beta = 0.5 ,
 /
ATOMIC_SPECIES
    C   12.01100  C.revpbe-n-kjpaw_psl.0.1.UPF 
   Br   79.90350  Br.revpbe-n-kjpaw_psl.0.2.UPF 
    O   15.99940  O.revpbe-n-kjpaw_psl.0.1.UPF 
ATOMIC_POSITIONS (crystal)
C       -0.001148779   0.002415770   0.002828748
C        0.251244157   0.008985061   0.006019619
C        0.497067457   0.002194410   0.001895606
C        0.745249432  -0.002932909  -0.004552850
C       -0.005020643   0.249355844   0.007034524
C        0.080741686   0.169534226   0.001757345
C        0.248324333   0.256497125  -0.006676851
C        0.334083012   0.174697923  -0.004062768
C        0.501650648   0.256350822  -0.004662882
C        0.582309337   0.169303038   0.002998430
C        0.747890688   0.249249406   0.008450142
C        0.828156575   0.162780240   0.005571094
C       -0.002151440   0.501815025   0.018825832
C        0.075704245   0.416094324   0.011562725
C        0.238193299   0.500919735  -0.002033435
C        0.314591444   0.419446950  -0.016769042
C        0.598197524   0.419662233  -0.011703254
C        0.755752697   0.500863383   0.003670551
C        0.833930942   0.415861024   0.014457511
C        0.003902799   0.755871806   0.014662018
C        0.081883823   0.669908552   0.018984399
C        0.245475944   0.755650875   0.011721994
C        0.323148948   0.670895306  -0.002135359
C        0.480945827   0.752337423  -0.017202095
Br       0.540408843   0.585770256  -0.040316369
C        0.764433608   0.752063410  -0.011960240
C        0.840755251   0.670892932   0.003668461
C        0.084479965   0.922492564   0.008667803
C        0.331490695   0.922399895   0.007382735
C        0.577665115   0.915271001  -0.006992228
C        0.831159461   0.915391044  -0.005061189
O        0.527618559   0.586097839   0.176807279
O        0.408531210   0.585196803   0.207161746
K_POINTS automatic 
  16 16 1   0 0 0 

