 &CONTROL
                 calculation = 'nscf' ,
                      outdir = './tmp/' ,
                  pseudo_dir = '/home/deleted/pseudo_psl' ,
                      prefix = 'GF_ip' ,
                   verbosity = 'high' ,
               etot_conv_thr = 1.0D-5 ,
               forc_conv_thr = 4.0D-4 ,
                       nstep = 1000 ,
                    dipfield = .true. ,
 /
 &SYSTEM
                       ibrav = 4,
                           A = 9.88 ,
                           C = 15 ,
                         nat = 33,
                        ntyp = 3,
                     ecutwfc = 40.424239707 ,
                     ecutrho = 404.24239707 ,
                 occupations = 'tetrahedra' ,
                     degauss = 0.01 ,
				   input_dft = 'vdW-DF' ,
    nspin = 2 ,
    starting_magnetization(1) = 0.5,
    starting_magnetization(2) = 0.5,
    starting_magnetization(3) = 0.5,
 /
 &ELECTRONS
            electron_maxstep = 50001,
                    conv_thr = 1.0D-6 ,
                 mixing_mode = 'local-TF' ,
                 mixing_beta = 0.5 ,
 /
ATOMIC_SPECIES
    C   12.01100  C.revpbe-n-kjpaw_psl.0.1.UPF 
    F   18.99800  F.revpbe-n-kjpaw_psl.0.1.UPF 
    O   15.99940  O.revpbe-n-kjpaw_psl.0.1.UPF 
ATOMIC_POSITIONS (crystal)
C        0.003195810   0.002558195   0.003596251
C        0.247096095  -0.005807809   0.007244158
C        0.499362385   0.002558195   0.003596251
C        0.754218682   0.008437364  -0.004393259
C        0.004384816   0.253350740   0.001867973
C        0.086379345   0.168793135   0.004363223
C        0.253278133   0.247279950   0.006051698
C        0.328484173   0.156968346   0.007432676
C        0.494001817   0.247279950   0.006051698
C        0.582413789   0.168793135   0.004363223
C        0.748965923   0.253350740   0.001867973
C        0.836281130   0.172562261  -0.000530010
C       -0.000058916   0.499882169   0.002400901
C        0.091071194   0.418562472   0.002180953
C        0.265685718   0.497875276   0.001866302
C        0.348824350   0.409413013   0.003912052
C        0.560588662   0.409413013   0.003912052
C        0.732189558   0.497875276   0.001866302
C        0.827491277   0.418562472   0.002180953
C       -0.003371643   0.747221816   0.004152991
C        0.082398242   0.664796486   0.004432597
C        0.250593458   0.747221816   0.004152991
C        0.338849432   0.665573445  -0.000001955
C        0.498141979   0.765158586  -0.004833749
F        0.592427180   0.684854361  -0.031526145
C        0.767016607   0.765158586  -0.004833749
C        0.826724012   0.665573445  -0.000001955
C        0.080359520   0.913266751   0.005594058
C        0.332907229   0.913266751   0.005594058
C        0.587742181   0.924949767  -0.003396373
C        0.837207585   0.924949767  -0.003396373
O        0.690849496   0.881698991   0.196221747
O        0.620967441   0.741934883   0.168010488
K_POINTS automatic 
  20 20 1   0 0 0 

