 &CONTROL
                 calculation = 'scf' ,
                      outdir = './tmp/' ,
                  pseudo_dir = '/home/deleted/pseudo_psl' ,
                      prefix = 'GCl_op' ,
                   verbosity = 'high' ,
               etot_conv_thr = 1.0D-5 ,
               forc_conv_thr = 4.0D-4 ,
                       nstep = 1000 ,
                    dipfield = .true. ,
 /
 &SYSTEM
                       ibrav = 4,
                           A = 9.88 ,
                           C = 15 ,
                         nat = 32,
                        ntyp = 3,
                     ecutwfc = 40.424239707 ,
                     ecutrho = 404.24239707 ,
                 occupations = 'smearing' ,
                     degauss = 0.01 ,
				   input_dft = 'vdW-DF' ,
    nspin = 2 ,
    starting_magnetization(1) = 0.5,
    starting_magnetization(2) = 0.5,
    starting_magnetization(3) = 0.5,
 /
 &ELECTRONS
            electron_maxstep = 50001,
                    conv_thr = 1.0D-6 ,
                 mixing_mode = 'local-TF' ,
                 mixing_beta = 0.5 ,
 /
ATOMIC_SPECIES
    C   12.01100  C.revpbe-n-kjpaw_psl.0.1.UPF 
   Cl   35.45200  Cl.revpbe-n-kjpaw_psl.0.3.0.UPF 
    O   15.99940  O.revpbe-n-kjpaw_psl.0.1.UPF 
ATOMIC_POSITIONS (crystal)
C        0.002811084   0.003624846  -0.005675207
C        0.248428368  -0.003143264  -0.010260272
C        0.500813762   0.003624846  -0.005675207
C        0.754578040   0.009156079   0.005576457
C        0.004681441   0.254801628  -0.005584198
C        0.086564549   0.170124097  -0.008647545
C        0.254005291   0.249980474  -0.011468248
C        0.330026249   0.160052498  -0.012811027
C        0.495975183   0.249980474  -0.011468248
C        0.583559546   0.170124097  -0.008647545
C        0.750120187   0.254801628  -0.005584198
C        0.836895609   0.173791218  -0.002137456
C        0.000946453   0.501892906  -0.004806360
C        0.090967104   0.420228708  -0.005057511
C        0.264688321   0.501324082  -0.003044671
C        0.347271390   0.412220254  -0.008342344
C        0.564948862   0.412220254  -0.008342344
C        0.736635760   0.501324082  -0.003044671
C        0.829261603   0.420228708  -0.005057511
C       -0.002375327   0.749091058  -0.004773391
C        0.083384419   0.666768839  -0.006761882
C        0.251466385   0.749091058  -0.004773391
C        0.337820666   0.668214156   0.003769135
C        0.501322418   0.762532010   0.016466378
Cl       0.591060744   0.682121490   0.084160818
C        0.761209593   0.762532010   0.016466378
C        0.830393489   0.668214156   0.003769135
C        0.081557786   0.915649036  -0.007031631
C        0.334091250   0.915649036  -0.007031631
C        0.587983479   0.925383039   0.005778465
C        0.837399558   0.925383039   0.005778465
O        0.621506732   0.743013464   0.180927918
K_POINTS automatic 
  16 16 1   0 0 0 

