 &CONTROL
                 calculation = 'nscf' ,
                      outdir = './tmp/' ,
                  pseudo_dir = '/home/deleted/pseudo_psl' ,
                      prefix = 'GF_ip' ,
                   verbosity = 'high' ,
               etot_conv_thr = 1.0D-5 ,
               forc_conv_thr = 4.0D-4 ,
                       nstep = 1000 ,
                    dipfield = .true. ,
 /
 &SYSTEM
                       ibrav = 4,
                           A = 9.88 ,
                           C = 15 ,
                         nat = 33,
                        ntyp = 3,
                     ecutwfc = 40.424239707 ,
                     ecutrho = 404.24239707 ,
                 occupations = 'tetrahedra' ,
                     degauss = 0.01 ,
				   input_dft = 'vdW-DF' ,
 /
 &ELECTRONS
            electron_maxstep = 50001,
                    conv_thr = 1.0D-6 ,
                 mixing_mode = 'local-TF' ,
                 mixing_beta = 0.5 ,
 /
ATOMIC_SPECIES
    C   12.01100  C.revpbe-n-kjpaw_psl.0.1.UPF 
    F   18.99800  F.revpbe-n-kjpaw_psl.0.1.UPF 
    O   15.99940  O.revpbe-n-kjpaw_psl.0.1.UPF 
ATOMIC_POSITIONS crystal 
C       -0.002704168   0.008564330   0.009390701
C        0.246151579   0.006174446   0.015387730
C        0.496890647   0.008556316   0.015710429
C        0.745842455   0.009408649   0.006842224
C       -0.002489262   0.259064820   0.009680356
C        0.079120993   0.174848516   0.014337749
C        0.245425138   0.255786349   0.016731966
C        0.328407215   0.171743308   0.014524647
C        0.494436112   0.255225676   0.009500854
C        0.579700650   0.174385378   0.007920717
C        0.745788112   0.259010365   0.006511228
C        0.829907903   0.175868782   0.006479308
C       -0.003892119   0.508197610   0.009181016
C        0.081873740   0.425553395   0.013703555
C        0.250965429   0.509243507   0.023878891
C        0.329216838   0.419336909   0.019726314
C        0.574787797   0.419440313   0.005878035
C        0.741070269   0.507974951  -0.003276210
C        0.827324443   0.425599118   0.003520336
C       -0.004642727   0.758171150   0.006527514
C        0.078854374   0.674190616   0.012541323
C        0.245942186   0.756641215   0.021191356
C        0.329374862   0.675227238   0.032424937
C        0.494931813   0.769597419   0.060796966
F        0.632524473   0.713525447  -0.081348157
C        0.764824903   0.771499303  -0.030160652
C        0.829484221   0.676911547  -0.009983877
C        0.078949841   0.923890180   0.010734543
C        0.329492379   0.924328553   0.019275795
C        0.581815302   0.928762339   0.022127030
C        0.832849090   0.928299711  -0.003972733
O        0.554262384   0.725681594   0.118742971
O        0.490272713   0.494999092   0.015473138
K_POINTS automatic 
  20 20 1   0 0 0 

