 &CONTROL
                 calculation = 'scf' ,
                      outdir = './tmp_subs/' ,
                  pseudo_dir = '/home/deleted/pseudo_psl' ,
                      prefix = 'GCl_op-subs' ,
                   verbosity = 'high' ,
               etot_conv_thr = 1.0D-5 ,
               forc_conv_thr = 4.0D-4 ,
                       nstep = 1000 ,
                    dipfield = .true. ,
 /
 &SYSTEM
                       ibrav = 4,
                           A = 9.88 ,
                           C = 15 ,
                         nat = 31,
                        ntyp = 2,
                     ecutwfc = 40.424239707 ,
                     ecutrho = 404.24239707 ,
                 occupations = 'smearing' ,
                     degauss = 0.01 ,
				   input_dft = 'vdW-DF' ,
    nspin = 2 ,
    starting_magnetization(1) = 0.5,
    starting_magnetization(2) = 0.5,
 /
 &ELECTRONS
            electron_maxstep = 50001,
                    conv_thr = 1.0D-6 ,
                 mixing_mode = 'local-TF' ,
                 mixing_beta = 0.5 ,
 /
ATOMIC_SPECIES
    C   12.01100  C.revpbe-n-kjpaw_psl.0.1.UPF 
   Cl   35.45200  Cl.revpbe-n-kjpaw_psl.0.3.0.UPF 
ATOMIC_POSITIONS (crystal)
C       -0.007059851  -0.016914609  -0.005261101
C        0.238168152  -0.023663695  -0.013114052
C        0.490145242  -0.016914609  -0.005261101
C        0.744030798  -0.011938403   0.012633169
C       -0.006112107   0.233422610  -0.004142310
C        0.076227245   0.149522455  -0.008582655
C        0.243564378   0.229245857  -0.012195877
C        0.319772426   0.139544853  -0.014637128
C        0.485681479   0.229245857  -0.012195877
C        0.573295209   0.149522455  -0.008582655
C        0.739534717   0.233422610  -0.004142310
C        0.825894135   0.151788271   0.000747630
C       -0.009675082   0.480649836  -0.004262111
C        0.080107278   0.398958619  -0.003962808
C        0.253769953   0.479590185  -0.001473050
C        0.336552932   0.391438085  -0.007383810
C        0.554885152   0.391438085  -0.007383810
C        0.725820231   0.479590185  -0.001473050
C        0.818851340   0.398958619  -0.003962808
C       -0.012025255   0.728514801  -0.006632423
C        0.072831548   0.645663097  -0.008431347
C        0.240540056   0.728514801  -0.006632423
C        0.326812017   0.647345994   0.005416076
C        0.485137692   0.744214439   0.024731578
Cl       0.583211769   0.666423540   0.088284493
C        0.759076748   0.744214439   0.024731578
C        0.820533976   0.647345994   0.005416076
C        0.071340347   0.894869433  -0.009130431
C        0.323529085   0.894869433  -0.009130431
C        0.576182711   0.905314674   0.012254836
C        0.829131962   0.905314674   0.012254836
K_POINTS automatic 
  16 16 1   0 0 0 

