 &CONTROL
                 calculation = 'bands' ,
                      outdir = './tmp/' ,
                  pseudo_dir = '/home/deleted/pseudo_psl' ,
                      prefix = 'GF_ip' ,
                   verbosity = 'high' ,
               etot_conv_thr = 1.0D-5 ,
               forc_conv_thr = 4.0D-4 ,
                       nstep = 1000 ,
                    dipfield = .true. ,
 /
 &SYSTEM
                       ibrav = 4,
                           A = 9.88 ,
                           C = 15 ,
                         nat = 32,
                        ntyp = 3,
                     ecutwfc = 40.424239707 ,
                     ecutrho = 404.24239707 ,
                 occupations = 'tetrahedra' ,
                     degauss = 0.01 ,
				   input_dft = 'vdW-DF' ,
    nspin = 2 ,
    starting_magnetization(1) = 0.5,
    starting_magnetization(2) = 0.5,
    starting_magnetization(3) = 0.5,
 /
 &ELECTRONS
            electron_maxstep = 50001,
                    conv_thr = 1.0D-6 ,
                 mixing_mode = 'local-TF' ,
                 mixing_beta = 0.5 ,
 /
ATOMIC_SPECIES
    C   12.01100  C.revpbe-n-kjpaw_psl.0.1.UPF 
    F   18.99800  F.revpbe-n-kjpaw_psl.0.1.UPF 
    O   15.99940  O.revpbe-n-kjpaw_psl.0.1.UPF 
ATOMIC_POSITIONS (crystal)
C       -0.001808784   0.001541514  -0.001581996
C        0.245135290  -0.003715765   0.006315317
C        0.496995144   0.002090504   0.010038272
C        0.746548558   0.003473032  -0.001017701
C       -0.000587088   0.252586897  -0.001653293
C        0.081669199   0.168558780   0.001937491
C        0.249609898   0.249951193   0.003790974
C        0.326696357   0.160315186   0.004821518
C        0.492305678   0.249181863   0.002634826
C        0.578909255   0.168442937   0.002692213
C        0.745085521   0.252635970   0.000208618
C        0.830672942   0.169945157  -0.001922225
C       -0.003850539   0.500360160  -0.000151771
C        0.085495483   0.418528727   0.001216343
C        0.260464627   0.501665293   0.008936309
C        0.342059879   0.412045361   0.004713649
C        0.562271860   0.412013126  -0.001397145
C        0.731829344   0.499981171  -0.007880897
C        0.824276466   0.418546460  -0.002673190
C       -0.005750793   0.749151510  -0.001913785
C        0.079071515   0.665982986   0.003084803
C        0.246500351   0.747386545   0.011335633
C        0.331568422   0.666765844   0.020137361
C        0.496276627   0.759241833   0.048663914
F        0.620131117   0.692981551  -0.076378101
C        0.761987717   0.762301561  -0.034189756
C        0.827339283   0.668662140  -0.015452359
C        0.077901957   0.914749793   0.000863136
C        0.329419249   0.915183517   0.011622543
C        0.582966880   0.922985450   0.015454012
C        0.832715138   0.921424325  -0.012812670
O        0.556139904   0.706222787   0.100557957
K_POINTS automatic 
  20 20 1   0 0 0 

