 &CONTROL
                 calculation = 'relax' ,
                      outdir = './tmp/' ,
                  pseudo_dir = '/home/deleted/pseudo_psl' ,
                      prefix = 'GBr_op' ,
                   verbosity = 'high' ,
               etot_conv_thr = 1.0D-5 ,
               forc_conv_thr = 4.0D-4 ,
                       nstep = 1000 ,
                    dipfield = .true. ,
 /
 &SYSTEM
                       ibrav = 4,
                           A = 9.88 ,
                           C = 15 ,
                         nat = 34,
                        ntyp = 4,
                     ecutwfc = 40.424239707 ,
                     ecutrho = 404.24239707 ,
                 occupations = 'smearing' ,
                     degauss = 0.01 ,
				   input_dft = 'vdW-DF' ,
    nspin = 2 ,
    starting_magnetization(1) = 0.5,
    starting_magnetization(2) = 0.5,
    starting_magnetization(3) = 0.5,
	starting_magnetization(4) = 0.5,
 /
 &ELECTRONS
            electron_maxstep = 50001,
                    conv_thr = 1.0D-6 ,
                 mixing_mode = 'local-TF' ,
                 mixing_beta = 0.5 ,
 /
 &IONS
                ion_dynamics = 'bfgs' ,
 /
ATOMIC_SPECIES
    C   12.01100  C.revpbe-n-kjpaw_psl.0.1.UPF 
   Br   79.90350  Br.revpbe-n-kjpaw_psl.0.2.UPF 
    O   15.99940  O.revpbe-n-kjpaw_psl.0.1.UPF 
    H   1.008000  H.revpbe-kjpaw_psl.0.1.UPF
ATOMIC_POSITIONS (crystal)
C       -0.001366854   0.000255211  -0.002799340
C        0.244837137  -0.010325725  -0.003038745
C        0.501622065   0.000255211  -0.002799340
C        0.757656947   0.015313892  -0.002990030
C        0.007603933   0.256866422  -0.001913313
C        0.085079756   0.167436387  -0.002178528
C        0.251958294   0.243944080  -0.002279310
C        0.326347403   0.152694809  -0.002926688
C        0.491985786   0.243944080  -0.002279310
C        0.582356630   0.167436387  -0.002178528
C        0.749262489   0.256866422  -0.001913313
C        0.839030239   0.178060480  -0.001992233
C        0.001033568   0.502067138  -0.003157682
C        0.096252579   0.421899202  -0.002706494
C        0.273374291   0.499858066  -0.003320606
C        0.352223620   0.406639872  -0.001248145
C        0.554416250   0.406639872  -0.001248145
C        0.726483776   0.499858066  -0.003320606
C        0.825646623   0.421899202  -0.002706494
C       -0.012218951   0.746056793  -0.003633989
C        0.082923737   0.665847476  -0.003630987
C        0.258275746   0.746056793  -0.003633989
C        0.358177502   0.667949586  -0.003901924
C        0.530026674   0.761031949  -0.003689534
Br       0.482742695   0.465485392   0.183719305
C        0.731005275   0.761031949  -0.003689534
C        0.809772084   0.667949586  -0.003901924
C        0.076320353   0.910938483  -0.003116381
C        0.334618129   0.910938483  -0.003116381
C        0.591798499   0.923423652  -0.003305406
C        0.831625153   0.923423652  -0.003305406
O        0.775393090   0.925795233   0.217768165
O        0.650402144   0.925795233   0.217768165
H        0.712897617   0.914595653   0.317495709
K_POINTS automatic 
  4 4 1   0 0 0 

