 &CONTROL
                 calculation = 'scf' ,
                      outdir = './tmp/' ,
                  pseudo_dir = '/home/deleted/pseudo_psl' ,
                      prefix = 'GBr_op' ,
                   verbosity = 'high' ,
               etot_conv_thr = 1.0D-5 ,
               forc_conv_thr = 4.0D-4 ,
                       nstep = 1000 ,
                    dipfield = .true. ,
 /
 &SYSTEM
                       ibrav = 4,
                           A = 9.88 ,
                           C = 15 ,
                         nat = 34,
                        ntyp = 4,
                     ecutwfc = 40.424239707 ,
                     ecutrho = 404.24239707 ,
                 occupations = 'smearing' ,
                     degauss = 0.01 ,
				   input_dft = 'vdW-DF' ,
    nspin = 2 ,
    starting_magnetization(1) = 0.5,
    starting_magnetization(2) = 0.5,
    starting_magnetization(3) = 0.5,
 /
 &ELECTRONS
            electron_maxstep = 50001,
                    conv_thr = 1.0D-6 ,
                 mixing_mode = 'local-TF' ,
                 mixing_beta = 0.5 ,
 /
ATOMIC_SPECIES
    C   12.01100  C.revpbe-n-kjpaw_psl.0.1.UPF 
   Br   79.90350  Br.revpbe-n-kjpaw_psl.0.2.UPF 
    O   15.99940  O.revpbe-n-kjpaw_psl.0.1.UPF 
    H   1.008000  H.revpbe-kjpaw_psl.0.1.UPF
ATOMIC_POSITIONS (crystal)
C       -0.002071346  -0.002568061  -0.000063952
C        0.244183273  -0.012883134   0.000340200
C        0.500742158  -0.002567190   0.000031887
C        0.757136725   0.013028693  -0.000976052
C        0.007169187   0.254184528  -0.000453940
C        0.084391880   0.164759639  -0.000146455
C        0.251318494   0.241359808  -0.000129266
C        0.325212089   0.149177729   0.000149973
C        0.491293116   0.241376344  -0.000110336
C        0.581609849   0.164764920  -0.000127002
C        0.748252789   0.254188594  -0.000467202
C        0.838144974   0.175061870  -0.000858594
C        0.000438828   0.499635220  -0.000159412
C        0.095741973   0.418912357  -0.000279956
C        0.272950846   0.496540144  -0.000363387
C        0.351276398   0.403307547  -0.000485812
C        0.553270599   0.403323285  -0.000467326
C        0.724837272   0.496537510  -0.000345078
C        0.824421037   0.418902548  -0.000285406
C       -0.013463327   0.743175942   0.000109470
C        0.081812706   0.662416388   0.000069498
C        0.257854614   0.743162388   0.000141637
C        0.357324372   0.665420836  -0.000108241
C        0.528994619   0.758800725  -0.000118260
Br       0.522391430   0.551299693   0.242909886
C        0.730994395   0.758796792  -0.000137616
C        0.809327115   0.665440697  -0.000139827
C        0.075101330   0.907952666   0.000228700
C        0.334082378   0.907939096   0.000279634
C        0.591122026   0.920874342  -0.000361340
C        0.830991651   0.920881835  -0.000462307
O        0.783666332   1.002994639   0.225216292
O        0.757553406   1.113084010   0.223643870
H        0.581491091   0.648646588   0.164754756
K_POINTS automatic 
  16 16 1   0 0 0 

