 &CONTROL
                 calculation = 'nscf' ,
                      outdir = './tmp/' ,
                  pseudo_dir = '/home/deleted/pseudo_psl' ,
                      prefix = 'GBr_ip' ,
                   verbosity = 'high' ,
               etot_conv_thr = 1.0D-5 ,
               forc_conv_thr = 4.0D-4 ,
                       nstep = 1000 ,
                    dipfield = .true. ,
 /
 &SYSTEM
                       ibrav = 4,
                           A = 9.88 ,
                           C = 15 ,
                         nat = 34,
                        ntyp = 4,
                     ecutwfc = 40.424239707 ,
                     ecutrho = 404.24239707 ,
                 occupations = 'tetrahedra' ,
                     degauss = 0.01 ,
				   input_dft = 'vdW-DF' ,
    nspin = 2 ,
    starting_magnetization(1) = 0.5,
    starting_magnetization(2) = 0.5,
    starting_magnetization(3) = 0.5,
 /
 &ELECTRONS
            electron_maxstep = 50001,
                    conv_thr = 1.0D-6 ,
                 mixing_mode = 'local-TF' ,
                 mixing_beta = 0.5 ,
 /
ATOMIC_SPECIES
    C   12.01100  C.revpbe-n-kjpaw_psl.0.1.UPF 
   Br   79.90350  Br.revpbe-n-kjpaw_psl.0.2.UPF 
    O   15.99940  O.revpbe-n-kjpaw_psl.0.1.UPF 
    H   1.008000  H.revpbe-kjpaw_psl.0.1.UPF
ATOMIC_POSITIONS (crystal)
C       -0.003676548   0.004567713  -0.002806719
C        0.248833516   0.011172960  -0.001334683
C        0.494665564   0.004402413  -0.003495429
C        0.742538995  -0.001267952  -0.007685646
C       -0.007643785   0.251274450  -0.000183549
C        0.078230129   0.171548208  -0.003908933
C        0.246069444   0.258964049  -0.009573738
C        0.331802640   0.177124707  -0.008040129
C        0.499320260   0.258828829  -0.007564677
C        0.579716961   0.171363972  -0.002393831
C        0.745343233   0.251184513   0.001538616
C        0.825553440   0.164679939  -0.001137554
C       -0.004708135   0.503871024   0.008451199
C        0.072805792   0.417885278   0.003200455
C        0.235942694   0.502994941  -0.004717874
C        0.314059536   0.422507379  -0.014270092
C        0.594733780   0.422584889  -0.009569196
C        0.753157868   0.502861567   0.001073802
C        0.831520138   0.417698585   0.006415385
C        0.001786163   0.758142898   0.006204744
C        0.079358630   0.671980937   0.008313043
C        0.242869874   0.757994022   0.003243631
C        0.320952771   0.672854884  -0.004378356
C        0.479590447   0.753405559  -0.013410840
Br       0.537762641   0.587803975  -0.032996377
C        0.759930490   0.753261380  -0.008591472
C        0.838092746   0.672857831   0.001312940
C        0.082088360   0.924644924   0.001177189
C        0.329021757   0.924576397  -0.000078101
C        0.575022510   0.916962119  -0.008956082
C        0.828419121   0.917081036  -0.007303177
O        0.591196519   0.720868399   0.173386321
O        0.513605067   0.568914843   0.132634265
H        0.689331856   0.729570438   0.194188254
K_POINTS automatic 
  20 20 1   0 0 0 

