 &CONTROL
                 calculation = 'bands' ,
                      outdir = './tmp/' ,
                  pseudo_dir = '/home/deleted/pseudo_psl' ,
                      prefix = 'GI_op' ,
                   verbosity = 'high' ,
               etot_conv_thr = 1.0D-5 ,
               forc_conv_thr = 4.0D-4 ,
                       nstep = 1000 ,
                    dipfield = .true. ,
 /
 &SYSTEM
                       ibrav = 4,
                           A = 9.88 ,
                           C = 15 ,
                         nat = 34,
                        ntyp = 4,
                     ecutwfc = 40.424239707 ,
                     ecutrho = 404.24239707 ,
                 occupations = 'tetrahedra' ,
                     degauss = 0.01 ,
				   input_dft = 'vdW-DF' ,
 /
 &ELECTRONS
            electron_maxstep = 50001,
                    conv_thr = 1.0D-6 ,
                 mixing_mode = 'local-TF' ,
                 mixing_beta = 0.5 ,
 /
ATOMIC_SPECIES
    C   12.01100  C.revpbe-n-kjpaw_psl.0.1.UPF 
    I  126.90400  I.revpbe-n-kjpaw_psl.0.2.UPF 
    O   15.99940  O.revpbe-n-kjpaw_psl.0.1.UPF 
    H   1.008000  H.revpbe-kjpaw_psl.0.1.UPF
ATOMIC_POSITIONS crystal 
C       -0.008661078  -0.011319828  -0.005614813
C        0.237533956  -0.021744549  -0.005146613
C        0.494267069  -0.011299556  -0.005637842
C        0.750793385   0.004618559  -0.006411405
C        0.000765079   0.245540292  -0.005552635
C        0.077929460   0.156050281  -0.005439450
C        0.244850822   0.232562341  -0.005253417
C        0.318584396   0.140249272  -0.005050612
C        0.484621786   0.232584660  -0.005032464
C        0.575027014   0.156083759  -0.005246840
C        0.741656213   0.245611579  -0.005328468
C        0.831710348   0.166562652  -0.005842323
C       -0.006169755   0.490979959  -0.005335138
C        0.089370887   0.410249459  -0.005449862
C        0.266801022   0.487728668  -0.005703792
C        0.345450939   0.394524525  -0.005487788
C        0.546100612   0.394602607  -0.005172496
C        0.717805120   0.487963723  -0.005206050
C        0.817599461   0.410309663  -0.005151610
C       -0.020355974   0.734432153  -0.005450709
C        0.075134743   0.653688217  -0.005378270
C        0.251390867   0.734495801  -0.005480788
C        0.351416603   0.656894826  -0.005764809
C        0.523600834   0.750319213  -0.006247560
I        0.688450293   0.915008056   0.257928359
C        0.723991746   0.750332371  -0.006143852
C        0.802273327   0.656896187  -0.005587696
C        0.068419294   0.899134310  -0.005366655
C        0.327580773   0.899209187  -0.005356143
C        0.584788565   0.912336930  -0.006276618
C        0.824473160   0.912293859  -0.006246008
O        0.577310423   0.679874612   0.212475331
O        0.409034671   0.603213799   0.218219046
H        0.381773457   0.622939951   0.158349112
K_POINTS crystal_b 
4
0.0000000000    0.0000000000    0.0000000000 17
0.0000000000    0.5000000000    0.0000000000 10
0.3333333333    0.3333333333    0.0000000000 20
0.0000000000    0.0000000000    0.0000000000 1

