 &CONTROL
                 calculation = 'scf' ,
                      outdir = './tmp_subs/' ,
                  pseudo_dir = '/home/deleted/pseudo_psl' ,
                      prefix = 'GCl_op_subs' ,
                   verbosity = 'high' ,
               etot_conv_thr = 1.0D-5 ,
               forc_conv_thr = 4.0D-4 ,
                       nstep = 1000 ,
                    dipfield = .true. ,
 /
 &SYSTEM
                       ibrav = 4,
                           A = 9.88 ,
                           C = 15 ,
                         nat = 31,
                        ntyp = 2,
                     ecutwfc = 40.424239707 ,
                     ecutrho = 404.24239707 ,
                 occupations = 'smearing' ,
                     degauss = 0.01 ,
				   input_dft = 'vdW-DF' ,
 /
 &ELECTRONS
            electron_maxstep = 50001,
                    conv_thr = 1.0D-6 ,
                 mixing_mode = 'local-TF' ,
                 mixing_beta = 0.5 ,
 /
ATOMIC_SPECIES
    C   12.01100  C.revpbe-n-kjpaw_psl.0.1.UPF 
   Cl   35.45200  Cl.revpbe-n-kjpaw_psl.0.3.0.UPF 
ATOMIC_POSITIONS crystal 
C        0.011725906   0.009774629  -0.001373660
C        0.257489974   0.003715038  -0.009325654
C        0.509182255   0.009663848  -0.000165417
C        0.762702724   0.014469348   0.017588822
C        0.012820338   0.260244423  -0.000495480
C        0.094884556   0.176034610  -0.004690615
C        0.262031687   0.256012262  -0.008865621
C        0.338899225   0.166851313  -0.010758621
C        0.505203734   0.256194676  -0.008614213
C        0.592356976   0.176004391  -0.003945184
C        0.758519745   0.260252263   0.000258673
C        0.844634333   0.178110390   0.005649744
C        0.009620600   0.507939220  -0.001987004
C        0.098785642   0.425683542  -0.001697603
C        0.272068040   0.506548278   0.000025458
C        0.352922200   0.418220273  -0.004886083
C        0.576008994   0.418152261  -0.004933138
C        0.745604077   0.506625922   0.001034648
C        0.838180420   0.425778801  -0.000868088
C        0.007202660   0.755814940  -0.004156381
C        0.092135731   0.672768384  -0.006197921
C        0.260190758   0.755869232  -0.004049641
C        0.346399738   0.674584835   0.007794061
C        0.504219557   0.769270440   0.028620931
Cl       0.599204605   0.689343444   0.093663169
C        0.775553084   0.769658233   0.026138079
C        0.839555241   0.675040511   0.007362655
C        0.090504409   0.921974438  -0.005851917
C        0.342658991   0.921872072  -0.005362252
C        0.594448295   0.931192925   0.017353142
C        0.847725056   0.931133892   0.015564627
K_POINTS automatic 
  16 16 1   0 0 0 

