 &CONTROL
                 calculation = 'nscf' ,
                      outdir = './tmp/' ,
                  pseudo_dir = '/home/deleted/pseudo_psl' ,
                      prefix = 'GF_op' ,
                   verbosity = 'high' ,
               etot_conv_thr = 1.0D-5 ,
               forc_conv_thr = 4.0D-4 ,
                       nstep = 1000 ,
                    dipfield = .true. ,
 /
 &SYSTEM
                       ibrav = 4,
                           A = 9.88 ,
                           C = 15 ,
                         nat = 33,
                        ntyp = 3,
                     ecutwfc = 40.424239707 ,
                     ecutrho = 404.24239707 ,
                 occupations = 'tetrahedra' ,
                     degauss = 0.01 ,
				   input_dft = 'vdW-DF' ,
    nspin = 2 ,
    starting_magnetization(1) = 0.5,
    starting_magnetization(2) = 0.5,
    starting_magnetization(3) = 0.5,
 /
 &ELECTRONS
            electron_maxstep = 50001,
                    conv_thr = 1.0D-6 ,
                 mixing_mode = 'local-TF' ,
                 mixing_beta = 0.5 ,
 /
ATOMIC_SPECIES
    C   12.01100  C.revpbe-n-kjpaw_psl.0.1.UPF 
    F   18.99800  F.revpbe-n-kjpaw_psl.0.1.UPF 
    O   15.99940  O.revpbe-n-kjpaw_psl.0.1.UPF 
ATOMIC_POSITIONS (crystal)
C       -0.002710731  -0.009410988  -0.002774020
C        0.241166733  -0.017666536   0.000079156
C        0.493299743  -0.009410988  -0.002774020
C        0.748171811  -0.003656376  -0.009465587
C       -0.001614008   0.241331846  -0.003912567
C        0.080411590   0.156843759  -0.002131193
C        0.247245988   0.235267799  -0.000891867
C        0.322552222   0.145104446   0.000189650
C        0.488021813   0.235267799  -0.000891867
C        0.576432168   0.156843759  -0.002131193
C        0.742945854   0.241331846  -0.003912567
C        0.830240009   0.160480018  -0.005806559
C       -0.006093669   0.487812661  -0.003310814
C        0.084946954   0.406571368  -0.003608589
C        0.259470142   0.485787987  -0.004125317
C        0.342407453   0.397342894  -0.002730771
C        0.554935439   0.397342894  -0.002730771
C        0.726317846   0.485787987  -0.004125317
C        0.821624413   0.406571368  -0.003608589
C       -0.009150418   0.735284078  -0.002035504
C        0.076417491   0.652834983  -0.001700500
C        0.244434497   0.735284078  -0.002035504
C        0.332682839   0.653620972  -0.005610525
C        0.491695761   0.753239228  -0.010266265
F        0.585685746   0.671371493  -0.032333847
C        0.761543467   0.753239228  -0.010266265
C        0.820938132   0.653620972  -0.005610525
C        0.074489902   0.901362427  -0.001132182
C        0.326872523   0.901362427  -0.001132182
C        0.581778935   0.912981091  -0.008540339
C        0.831202155   0.912981091  -0.008540339
O        0.614870892   0.729741783   0.170341515
O        0.550099638   0.600199278   0.210858599
K_POINTS automatic 
  20 20 1   0 0 0 

