 &CONTROL
                 calculation = 'nscf' ,
                      outdir = './tmp/' ,
                  pseudo_dir = '/home/deleted/pseudo_psl' ,
                      prefix = 'GF_ip' ,
                   verbosity = 'high' ,
               etot_conv_thr = 1.0D-5 ,
               forc_conv_thr = 4.0D-4 ,
                       nstep = 1000 ,
                    dipfield = .true. ,
 /
 &SYSTEM
                       ibrav = 4,
                           A = 9.88 ,
                           C = 15 ,
                         nat = 34,
                        ntyp = 4,
                     ecutwfc = 40.424239707 ,
                     ecutrho = 404.24239707 ,
                 occupations = 'tetrahedra' ,
                     degauss = 0.01 ,
				   input_dft = 'vdW-DF' ,
 /
 &ELECTRONS
            electron_maxstep = 50001,
                    conv_thr = 1.0D-6 ,
                 mixing_mode = 'local-TF' ,
                 mixing_beta = 0.5 ,
 /
ATOMIC_SPECIES
    C   12.01100  C.revpbe-n-kjpaw_psl.0.1.UPF 
    F   18.99800  F.revpbe-n-kjpaw_psl.0.1.UPF 
    O   15.99940  O.revpbe-n-kjpaw_psl.0.1.UPF 
    H   1.008000  H.revpbe-kjpaw_psl.0.1.UPF
ATOMIC_POSITIONS crystal 
C        0.004032952   0.007051442   0.003370100
C        0.253018887   0.004382072   0.010619553
C        0.502931163   0.008457169   0.015467318
C        0.750987905   0.007782328   0.004662852
C        0.004395197   0.258055691   0.003088688
C        0.086684627   0.174736286   0.006880303
C        0.254618639   0.258150169   0.009158884
C        0.335930138   0.170588418   0.012931835
C        0.498495120   0.254141318   0.017778284
C        0.585016308   0.174882910   0.011638192
C        0.751537023   0.257951471   0.007932386
C        0.835075786   0.175355286   0.003607786
C        0.003584219   0.507416964   0.002601930
C        0.089607729   0.424347959   0.005624206
C        0.261186723   0.506836206   0.014207615
C        0.342468248   0.420072552   0.007957191
C        0.577709282   0.423412732   0.034710551
C        0.748630807   0.508945719  -0.000446382
C        0.833089181   0.426264870   0.002290952
C        0.004082508   0.756975107  -0.000263960
C        0.086690703   0.672954488   0.005163754
C        0.253454513   0.754709993   0.014934949
C        0.335669192   0.672929661   0.024789314
C        0.499389474   0.765254481   0.053415541
F        0.624633960   0.693559734  -0.068010151
C        0.768164827   0.766788301  -0.027946146
C        0.837175727   0.674413709  -0.010983427
C        0.086103297   0.922803058   0.003590279
C        0.336085923   0.923024675   0.016304051
C        0.588159810   0.928177533   0.020193673
C        0.837783022   0.925452776  -0.006986327
O        0.559500640   0.716477032   0.108790687
O        0.576389168   0.456237356   0.125063299
H        0.577117060   0.556603278   0.130711305
K_POINTS automatic 
  20 20 1   0 0 0 

