 &CONTROL
                 calculation = 'scf' ,
                      outdir = './tmp_subs/' ,
                  pseudo_dir = '/home/deleted/pseudo_psl' ,
                      prefix = 'GBr_ip_subs' ,
                   verbosity = 'high' ,
               etot_conv_thr = 1.0D-5 ,
               forc_conv_thr = 4.0D-4 ,
                       nstep = 1000 ,
                    dipfield = .true. ,
 /
 &SYSTEM
                       ibrav = 4,
                           A = 9.88 ,
                           C = 15 ,
                         nat = 31,
                        ntyp = 2,
                     ecutwfc = 40.424239707 ,
                     ecutrho = 404.24239707 ,
                 occupations = 'smearing' ,
                     degauss = 0.01 ,
				   input_dft = 'vdW-DF' ,
 /
 &ELECTRONS
            electron_maxstep = 50001,
                    conv_thr = 1.0D-6 ,
                 mixing_mode = 'local-TF' ,
                 mixing_beta = 0.5 ,
 /
ATOMIC_SPECIES
    C   12.01100  C.revpbe-n-kjpaw_psl.0.1.UPF 
   Br   79.90350  Br.revpbe-n-kjpaw_psl.0.2.UPF 
ATOMIC_POSITIONS crystal 
C        0.000638347  -0.000329417  -0.002655331
C        0.253406011   0.006812022  -0.006036954
C        0.499032237  -0.000329417  -0.002655331
C        0.746955729  -0.006088541   0.002750140
C       -0.003220286   0.246552177  -0.007716999
C        0.082670910   0.166978372  -0.002611801
C        0.250731822   0.254598612   0.004049885
C        0.336380655   0.172761311   0.002719400
C        0.503866791   0.254598612   0.004049885
C        0.584307461   0.166978372  -0.002611801
C        0.749772463   0.246552177  -0.007716999
C        0.829941693   0.159883385  -0.005969207
C       -0.000242799   0.499514402  -0.018188389
C        0.077488781   0.413441323  -0.012663278
C        0.239780854   0.498477893  -0.001526453
C        0.317694349   0.418024775   0.012151588
C        0.600330423   0.418024775   0.012151588
C        0.758697039   0.498477893  -0.001526453
C        0.835952541   0.413441323  -0.012663278
C        0.005860889   0.753252477  -0.012714155
C        0.083584380   0.667168760  -0.018231053
C        0.247391589   0.753252477  -0.012714155
C        0.324641926   0.668223883  -0.001490960
C        0.482994342   0.748657686   0.012294530
Br       0.541668737   0.583337474   0.030012050
C        0.765663344   0.748657686   0.012294530
C        0.843581955   0.668223883  -0.001490960
C        0.086566617   0.920140599  -0.007799092
C        0.333573982   0.920140599  -0.007799092
C        0.579472304   0.912053887   0.004066765
C        0.832581581   0.912053887   0.004066765
K_POINTS automatic 
  16 16 1   0 0 0 

