 &CONTROL
                 calculation = 'bands' ,
                      outdir = './tmp/' ,
                  pseudo_dir = '/home/deleted/pseudo_psl' ,
                      prefix = 'GF_op' ,
                   verbosity = 'high' ,
               etot_conv_thr = 1.0D-5 ,
               forc_conv_thr = 4.0D-4 ,
                       nstep = 1000 ,
                    dipfield = .true. ,
 /
 &SYSTEM
                       ibrav = 4,
                           A = 9.88 ,
                           C = 15 ,
                         nat = 33,
                        ntyp = 3,
                     ecutwfc = 40.424239707 ,
                     ecutrho = 404.24239707 ,
                 occupations = 'tetrahedra' ,
                     degauss = 0.01 ,
				   input_dft = 'vdW-DF' ,
    nspin = 2 ,
    starting_magnetization(1) = 0.5,
    starting_magnetization(2) = 0.5,
    starting_magnetization(3) = 0.5,
 /
 &ELECTRONS
            electron_maxstep = 50001,
                    conv_thr = 1.0D-6 ,
                 mixing_mode = 'local-TF' ,
                 mixing_beta = 0.5 ,
 /
ATOMIC_SPECIES
    C   12.01100  C.revpbe-n-kjpaw_psl.0.1.UPF 
    F   18.99800  F.revpbe-n-kjpaw_psl.0.1.UPF 
    O   15.99940  O.revpbe-n-kjpaw_psl.0.1.UPF 
ATOMIC_POSITIONS (crystal)
C        0.002787469   0.001542101  -0.004004911
C        0.246628388  -0.006743226  -0.000295735
C        0.498754632   0.001542101  -0.004004911
C        0.753692764   0.007385529  -0.011492099
C        0.003820613   0.252268435  -0.004040502
C        0.085842715   0.167755723  -0.002493275
C        0.252663129   0.246157241  -0.000549040
C        0.328028278   0.156056559   0.000333322
C        0.493494113   0.246157241  -0.000549040
C        0.581913007   0.167755723  -0.002493275
C        0.748447822   0.252268435  -0.004040502
C        0.835711790   0.171423581  -0.006478685
C       -0.000637604   0.498724791  -0.003231787
C        0.090352193   0.417534477  -0.003362991
C        0.264835958   0.496791067  -0.003979783
C        0.347739180   0.408299130  -0.002045068
C        0.560559949   0.408299130  -0.002045068
C        0.731955110   0.496791067  -0.003979783
C        0.827182284   0.417534477  -0.003362991
C       -0.003586744   0.746246797  -0.002656975
C        0.081895052   0.663790106  -0.001950501
C        0.249833541   0.746246797  -0.002656975
C        0.338070600   0.664599229  -0.006485086
C        0.496791158   0.764484247  -0.013067587
F        0.590681376   0.681362753  -0.031432494
C        0.767693089   0.764484247  -0.013067587
C        0.826528628   0.664599229  -0.006485086
C        0.079978704   0.912321125  -0.001913132
C        0.332342419   0.912321125  -0.001913132
C        0.587301892   0.924084879  -0.010777033
C        0.836782987   0.924084879  -0.010777033
O        0.728178061   0.828582171   0.199316041
O        0.600404111   0.828582171   0.199316041
K_POINTS automatic 
  20 20 1   0 0 0 

