 &CONTROL
                 calculation = 'scf' ,
                      outdir = './tmp/' ,
                  pseudo_dir = '/home/deleted/pseudo_psl' ,
                      prefix = 'GF_ip' ,
                   verbosity = 'high' ,
               etot_conv_thr = 1.0D-5 ,
               forc_conv_thr = 4.0D-4 ,
                       nstep = 1000 ,
                    dipfield = .true. ,
 /
 &SYSTEM
                       ibrav = 4,
                           A = 9.88 ,
                           C = 15 ,
                         nat = 32,
                        ntyp = 3,
                     ecutwfc = 40.424239707 ,
                     ecutrho = 404.24239707 ,
                 occupations = 'smearing' ,
                     degauss = 0.01 ,
				   input_dft = 'vdW-DF' ,
    nspin = 2 ,
    starting_magnetization(1) = 0.5,
    starting_magnetization(2) = 0.5,
    starting_magnetization(3) = 0.5,
 /
 &ELECTRONS
            electron_maxstep = 50001,
                    conv_thr = 1.0D-6 ,
                 mixing_mode = 'local-TF' ,
                 mixing_beta = 0.5 ,
 /
ATOMIC_SPECIES
    C   12.01100  C.revpbe-n-kjpaw_psl.0.1.UPF 
    F   18.99800  F.revpbe-n-kjpaw_psl.0.1.UPF 
    O   15.99940  O.revpbe-n-kjpaw_psl.0.1.UPF 
ATOMIC_POSITIONS (crystal)
C        0.001352796   0.001133934   0.006078238
C        0.246079957  -0.007840085   0.004859190
C        0.499781138   0.001133934   0.006078238
C        0.754387710   0.008775420   0.009323183
C        0.004929077   0.253603358   0.006731906
C        0.085725531   0.167643884   0.005442121
C        0.252327145   0.245809058   0.004858922
C        0.327612121   0.155224241   0.004165644
C        0.493481913   0.245809058   0.004858922
C        0.581918352   0.167643884   0.005442121
C        0.748674281   0.253603358   0.006731906
C        0.836606008   0.173212015   0.007680863
C       -0.000001140   0.499997721   0.007833026
C        0.092443029   0.418817853   0.007472934
C        0.268670175   0.498985859   0.008261941
C        0.350075978   0.408021835   0.006773536
C        0.557945855   0.408021835   0.006773536
C        0.730315684   0.498985859   0.008261941
C        0.826374824   0.418817853   0.007472934
C       -0.006516813   0.746199524   0.007546692
C        0.082499395   0.664998791   0.007535916
C        0.252716336   0.746199524   0.007546692
C        0.343357138   0.667003433   0.009760311
C        0.509325142   0.760269683   0.011695157
F        0.656404360   0.812808721  -0.143425827
C        0.750944540   0.760269683   0.011695157
C        0.823646293   0.667003433   0.009760311
C        0.079027842   0.912200453   0.005922851
C        0.333172609   0.912200453   0.005922851
C        0.587927891   0.923962568   0.008794528
C        0.836034676   0.923962568   0.008794528
O        0.592760149   0.685520298   0.023349733
K_POINTS automatic 
  16 16 1   0 0 0 

