 &CONTROL
                 calculation = 'nscf' ,
                      outdir = './tmp/' ,
                  pseudo_dir = '/home/deleted/pseudo_psl' ,
                      prefix = 'GBr_op' ,
                   verbosity = 'high' ,
               etot_conv_thr = 1.0D-5 ,
               forc_conv_thr = 4.0D-4 ,
                       nstep = 1000 ,
                    dipfield = .true. ,
 /
 &SYSTEM
                       ibrav = 4,
                           A = 9.88 ,
                           C = 15 ,
                         nat = 33,
                        ntyp = 3,
                     ecutwfc = 40.424239707 ,
                     ecutrho = 404.24239707 ,
                 occupations = 'tetrahedra' ,
                     degauss = 0.01 ,
				   input_dft = 'vdW-DF' ,
    nspin = 2 ,
    starting_magnetization(1) = 0.5,
    starting_magnetization(2) = 0.5,
    starting_magnetization(3) = 0.5,
 /
 &ELECTRONS
            electron_maxstep = 50001,
                    conv_thr = 1.0D-6 ,
                 mixing_mode = 'local-TF' ,
                 mixing_beta = 0.5 ,
 /
ATOMIC_SPECIES
    C   12.01100  C.revpbe-n-kjpaw_psl.0.1.UPF 
   Br   79.90350  Br.revpbe-n-kjpaw_psl.0.2.UPF 
    O   15.99940  O.revpbe-n-kjpaw_psl.0.1.UPF 
ATOMIC_POSITIONS (crystal)
C       -0.005837922  -0.002870934  -0.010646619
C        0.239024273  -0.010976780  -0.007139577
C        0.494288574  -0.002142057  -0.003232893
C        0.746685831   0.004781633  -0.009497345
C       -0.003168016   0.249273530  -0.011794601
C        0.077816952   0.163159385  -0.011832270
C        0.243695630   0.240889417  -0.010946567
C        0.320640230   0.152138732  -0.009120387
C        0.486768734   0.242582782  -0.007620722
C        0.575342031   0.163807385  -0.007674469
C        0.741783159   0.249598266  -0.009237046
C        0.829147230   0.169665863  -0.011665535
C       -0.008287892   0.496050062  -0.005918137
C        0.083663320   0.413876918  -0.007927223
C        0.256823609   0.490939394  -0.003402968
C        0.337778101   0.403473341  -0.007539948
C        0.553644577   0.404197978  -0.006396168
C        0.725243899   0.495869593  -0.006969296
C        0.820686854   0.415604996  -0.007632569
C       -0.013184339   0.743269808  -0.007170360
C        0.074301655   0.661878859  -0.003717291
C        0.241513275   0.743864917   0.001868978
C        0.331633442   0.660208726   0.014629116
C        0.505485411   0.756491856   0.016444835
Br       0.846202626   0.912576012   0.216497382
C        0.745811198   0.756811820  -0.008606044
C        0.817996082   0.663660044  -0.008092252
C        0.072411891   0.908904087  -0.008582486
C        0.324688856   0.907624728  -0.001681869
C        0.583679069   0.923773515  -0.001550732
C        0.829486934   0.919648567  -0.009401127
O        0.587049001   0.680775816  -0.011482165
O        0.427872085   0.706221783   0.100215709
K_POINTS automatic 
  20 20 1   0 0 0 

