 &CONTROL
                 calculation = 'nscf' ,
                      outdir = './tmp/' ,
                  pseudo_dir = '/home/deleted/pseudo_psl' ,
                      prefix = 'GBr_ip' ,
                   verbosity = 'high' ,
               etot_conv_thr = 1.0D-5 ,
               forc_conv_thr = 4.0D-4 ,
                       nstep = 1000 ,
                    dipfield = .true. ,
 /
 &SYSTEM
                       ibrav = 4,
                           A = 9.88 ,
                           C = 15 ,
                         nat = 34,
                        ntyp = 4,
                     ecutwfc = 40.424239707 ,
                     ecutrho = 404.24239707 ,
                 occupations = 'tetrahedra' ,
                     degauss = 0.01 ,
				   input_dft = 'vdW-DF' ,
    nspin = 2 ,
    starting_magnetization(1) = 0.5,
    starting_magnetization(2) = 0.5,
    starting_magnetization(3) = -0.2,
 /
 &ELECTRONS
            electron_maxstep = 50001,
                    conv_thr = 1.0D-6 ,
                 mixing_mode = 'local-TF' ,
                 mixing_beta = 0.5 ,
 /
ATOMIC_SPECIES
    C   12.01100  C.revpbe-n-kjpaw_psl.0.1.UPF 
   Br   79.90350  Br.revpbe-n-kjpaw_psl.0.2.UPF 
    O   15.99940  O.revpbe-n-kjpaw_psl.0.1.UPF 
    H   1.008000  H.revpbe-kjpaw_psl.0.1.UPF
ATOMIC_POSITIONS (crystal)
C        0.004030872   0.000557569   0.002294941
C        0.256605705   0.007357445   0.005424355
C        0.502358449   0.000448492   0.001919831
C        0.750482331  -0.004920607  -0.004324711
C        0.000205761   0.247476570   0.007046530
C        0.085997145   0.167713774   0.002095703
C        0.253764486   0.254951620  -0.005273124
C        0.339453821   0.173109224  -0.003840579
C        0.506983491   0.254846247  -0.005195660
C        0.587557020   0.167600905   0.001971841
C        0.753154574   0.247436917   0.007008645
C        0.833371240   0.160837918   0.004897708
C        0.003030796   0.500076958   0.017324024
C        0.080816767   0.414106070   0.011985970
C        0.243805505   0.499161555   0.001223722
C        0.320735099   0.418265041  -0.012368132
C        0.603323067   0.418239298  -0.012021947
C        0.761203096   0.499142749   0.001655610
C        0.839245287   0.414074918   0.012160258
C        0.009204459   0.754101744   0.012465771
C        0.087038058   0.668120613   0.017471312
C        0.250810793   0.754076156   0.012082762
C        0.328709958   0.669029489   0.001130984
C        0.486512041   0.749879326  -0.012648339
Br       0.545007506   0.584170192  -0.036969974
C        0.769217137   0.749931988  -0.012097044
C        0.846199817   0.669073557   0.001690699
C        0.089783763   0.920756908   0.007544589
C        0.336831961   0.920710613   0.007248627
C        0.582890038   0.913200299  -0.005659114
C        0.836257382   0.913322923  -0.005291102
O        0.542204961   0.598174595   0.154927517
O        0.471530978   0.445926299   0.191360465
H        0.558957995   0.444121360   0.221453223
K_POINTS automatic 
  20 20 1   0 0 0 

