 &BANDS
                      prefix = 'GBr_ip' ,
                      outdir = './tmp/' ,
                     filband = 'GBr_bands' ,
                     plot_2d = .false. ,
 /
