 &CONTROL
                 calculation = 'bands' ,
                      outdir = './tmp/' ,
                  pseudo_dir = '/home/deleted/pseudo_psl' ,
                      prefix = 'GBr_ip' ,
                   verbosity = 'high' ,
               etot_conv_thr = 1.0D-5 ,
               forc_conv_thr = 4.0D-4 ,
                       nstep = 1000 ,
                    dipfield = .true. ,
 /
 &SYSTEM
                       ibrav = 4,
                           A = 9.88 ,
                           C = 15 ,
                         nat = 33,
                        ntyp = 3,
                     ecutwfc = 40.424239707 ,
                     ecutrho = 404.24239707 ,
                 occupations = 'tetrahedra' ,
                     degauss = 0.01 ,
				   input_dft = 'vdW-DF' ,
 /
 &ELECTRONS
            electron_maxstep = 50001,
                    conv_thr = 1.0D-6 ,
                 mixing_mode = 'local-TF' ,
                 mixing_beta = 0.5 ,
 /
ATOMIC_SPECIES
    C   12.01100  C.revpbe-n-kjpaw_psl.0.1.UPF 
   Br   79.90350  Br.revpbe-n-kjpaw_psl.0.2.UPF 
    O   15.99940  O.revpbe-n-kjpaw_psl.0.1.UPF 
ATOMIC_POSITIONS crystal 
C       -0.003293538   0.008904157   0.002782905
C        0.249372277   0.015723185   0.005558890
C        0.495193481   0.009181857   0.003397982
C        0.743308778   0.003590789  -0.002194208
C       -0.007051240   0.255855488   0.009303060
C        0.078554403   0.175908245   0.004172336
C        0.246279098   0.263089628  -0.002538536
C        0.332200538   0.181441306  -0.002950655
C        0.499821864   0.263328090  -0.005130763
C        0.580374635   0.176207183   0.002320910
C        0.745946272   0.255982995   0.007293234
C        0.826159324   0.169314400   0.006324091
C       -0.004318864   0.508555627   0.017746646
C        0.073464381   0.422386500   0.015014653
C        0.236967874   0.507525215   0.007199345
C        0.314000420   0.426638204  -0.006208288
C        0.596038765   0.426581295  -0.012637711
C        0.754267496   0.507616925  -0.000144549
C        0.832065071   0.422618467   0.011221244
C        0.002069334   0.762500839   0.010848424
C        0.079687102   0.676553964   0.017314819
C        0.243562846   0.762733710   0.014165587
C        0.322000662   0.677601779   0.006957447
C        0.479960806   0.758529948  -0.005707184
Br       0.536720758   0.591990418  -0.033048863
C        0.762030848   0.758604881  -0.012293894
C        0.839235196   0.677596278  -0.000130048
C        0.082546652   0.929122860   0.006995667
C        0.329613596   0.929190207   0.008292931
C        0.575734670   0.921967799  -0.002397980
C        0.829032899   0.921758725  -0.004350310
O        0.546445198   0.583239851   0.153111841
O        0.587597365   0.721968360   0.179710978
K_POINTS crystal_b 
4
0.0000000000    0.0000000000    0.0000000000 17
0.0000000000    0.5000000000    0.0000000000 10
0.3333333333    0.3333333333    0.0000000000 20
0.0000000000    0.0000000000    0.0000000000 1

