 &CONTROL
                 calculation = 'scf' ,
                      outdir = './tmp_subs/' ,
                  pseudo_dir = '/home/deleted/pseudo_psl' ,
                      prefix = 'GBr_ip-subs' ,
                   verbosity = 'high' ,
               etot_conv_thr = 1.0D-5 ,
               forc_conv_thr = 4.0D-4 ,
                       nstep = 1000 ,
                    dipfield = .true. ,
 /
 &SYSTEM
                       ibrav = 4,
                           A = 9.88 ,
                           C = 15 ,
                         nat = 31,
                        ntyp = 2,
                     ecutwfc = 40.424239707 ,
                     ecutrho = 404.24239707 ,
                 occupations = 'smearing' ,
                     degauss = 0.01 ,
				   input_dft = 'vdW-DF' ,
    nspin = 2 ,
    starting_magnetization(1) = 0.5,
    starting_magnetization(2) = 0.5,
 /
 &ELECTRONS
            electron_maxstep = 50001,
                    conv_thr = 1.0D-6 ,
                 mixing_mode = 'local-TF' ,
                 mixing_beta = 0.5 ,
 /
ATOMIC_SPECIES
    C   12.01100  C.revpbe-n-kjpaw_psl.0.1.UPF 
   Br   79.90350  Br.revpbe-n-kjpaw_psl.0.2.UPF 
ATOMIC_POSITIONS (crystal)
C        0.007495972   0.013347955   0.002407928
C        0.260004653   0.020009307   0.006011848
C        0.505851984   0.013347955   0.002407928
C        0.754041611   0.008083221  -0.004305097
C        0.003669018   0.260309984   0.008066591
C        0.089353571   0.180441959   0.002532849
C        0.256969512   0.267387376  -0.005568846
C        0.342845086   0.185690172  -0.004048746
C        0.510417866   0.267387376  -0.005568846
C        0.591088387   0.180441959   0.002532849
C        0.756640966   0.260309984   0.008066591
C        0.836876231   0.173752461   0.005919375
C        0.006447561   0.512895123   0.019070577
C        0.084338755   0.427008396   0.013326003
C        0.247187007   0.511910433   0.001182981
C        0.323522740   0.430535636  -0.013865466
C        0.607012894   0.430535636  -0.013865466
C        0.764723426   0.511910433   0.001182981
C        0.842669640   0.427008396   0.013326003
C        0.012560928   0.766828935   0.013299222
C        0.090490499   0.680980998   0.019095541
C        0.254268008   0.766828935   0.013299222
C        0.332209600   0.681948077   0.001047859
C        0.489810033   0.763295556  -0.014335076
Br       0.548357964   0.596715929  -0.039761778
C        0.773485524   0.763295556  -0.014335076
C        0.849738477   0.681948077   0.001047859
C        0.093204804   0.933501689   0.008044036
C        0.340296884   0.933501689   0.008044036
C        0.586472932   0.926391902  -0.005904791
C        0.839918969   0.926391902  -0.005904791
K_POINTS automatic 
  16 16 1   0 0 0 

