 &CONTROL
                 calculation = 'scf' ,
                      outdir = './tmp/' ,
                  pseudo_dir = '/home/deleted/pseudo_psl' ,
                      prefix = 'GI_op' ,
                   verbosity = 'high' ,
               etot_conv_thr = 1.0D-5 ,
               forc_conv_thr = 4.0D-4 ,
                       nstep = 1000 ,
                    dipfield = .true. ,
 /
 &SYSTEM
                       ibrav = 4,
                           A = 9.88 ,
                           C = 15 ,
                         nat = 34,
                        ntyp = 4,
                     ecutwfc = 40.424239707 ,
                     ecutrho = 404.24239707 ,
                 occupations = 'smearing' ,
                     degauss = 0.01 ,
				   input_dft = 'vdW-DF' ,
 /
 &ELECTRONS
            electron_maxstep = 50001,
                    conv_thr = 1.0D-6 ,
                 mixing_mode = 'local-TF' ,
                 mixing_beta = 0.5 ,
 /
ATOMIC_SPECIES
    C   12.01100  C.revpbe-n-kjpaw_psl.0.1.UPF 
    I  126.90400  I.revpbe-n-kjpaw_psl.0.2.UPF 
    O   15.99940  O.revpbe-n-kjpaw_psl.0.1.UPF 
    H   1.008000  H.revpbe-kjpaw_psl.0.1.UPF
ATOMIC_POSITIONS crystal 
C       -0.002992537  -0.002465080  -0.004360011
C        0.243290687  -0.012806966  -0.003803662
C        0.499825893  -0.002469807  -0.004549009
C        0.756266711   0.013179901  -0.005675052
C        0.006194630   0.254261422  -0.003701078
C        0.083431952   0.164857163  -0.003600555
C        0.250386315   0.241463872  -0.003037206
C        0.324300821   0.149245714  -0.003204360
C        0.490388062   0.241430946  -0.003151183
C        0.580708753   0.164827166  -0.003726353
C        0.747328994   0.254238499  -0.003703949
C        0.837193891   0.175115268  -0.004432491
C       -0.000430089   0.499803341  -0.003673217
C        0.094667250   0.418989506  -0.003528436
C        0.271831850   0.496744746  -0.003798674
C        0.350314350   0.403490531  -0.003123104
C        0.552526904   0.403443410  -0.003104629
C        0.724131309   0.496706066  -0.003458743
C        0.823572699   0.418993128  -0.003386272
C       -0.014244210   0.743343481  -0.004304490
C        0.080990947   0.662557457  -0.004238877
C        0.256898711   0.743267515  -0.004777331
C        0.356027331   0.665512979  -0.004903144
C        0.528146166   0.758874870  -0.004835713
I        0.549990151   0.748147535   0.219457860
C        0.730477840   0.759081085  -0.005266462
C        0.808655840   0.665648553  -0.004308024
C        0.074204883   0.908095016  -0.004152104
C        0.333190761   0.908018048  -0.004424071
C        0.590326130   0.921179418  -0.005437745
C        0.830137748   0.921067950  -0.005494969
O        0.735341130   0.939433201   0.215223520
O        0.372502348   0.768524620   0.219435658
H        0.552855442   0.709821986   0.332862127
K_POINTS automatic 
  16 16 1   0 0 0 

