 &CONTROL
                 calculation = 'scf' ,
                      outdir = './tmp/' ,
                  pseudo_dir = '/home/deleted/pseudo_psl' ,
                      prefix = 'GCl_ip' ,
                   verbosity = 'high' ,
               etot_conv_thr = 1.0D-5 ,
               forc_conv_thr = 4.0D-4 ,
                       nstep = 1000 ,
                    dipfield = .true. ,
 /
 &SYSTEM
                       ibrav = 4,
                           A = 9.88 ,
                           C = 15 ,
                         nat = 33,
                        ntyp = 3,
                     ecutwfc = 40.424239707 ,
                     ecutrho = 404.24239707 ,
                 occupations = 'smearing' ,
                     degauss = 0.01 ,
				   input_dft = 'vdW-DF' ,
 /
 &ELECTRONS
            electron_maxstep = 50001,
                    conv_thr = 1.0D-6 ,
                 mixing_mode = 'local-TF' ,
                 mixing_beta = 0.5 ,
 /
ATOMIC_SPECIES
    C   12.01100  C.revpbe-n-kjpaw_psl.0.1.UPF 
   Cl   35.45200  Cl.revpbe-n-kjpaw_psl.0.3.0.UPF 
    O   15.99940  O.revpbe-n-kjpaw_psl.0.1.UPF 
ATOMIC_POSITIONS crystal 
C        0.002798221   0.003470595   0.001849660
C        0.253442271   0.006884540   0.012277937
C        0.500672373   0.003470595   0.001849660
C        0.750884983   0.001769966  -0.013926400
C        0.000104518   0.251396491  -0.003283388
C        0.084888197   0.169641427   0.008409464
C        0.246077543   0.250575006   0.031870480
C        0.336600220   0.173200441   0.029372552
C        0.504497464   0.250575006   0.031870480
C        0.584753229   0.169641427   0.008409464
C        0.751291973   0.251396491  -0.003283388
C        0.834021422   0.168042844  -0.008992964
C        0.001583197   0.503166394  -0.010737465
C        0.082973418   0.418477543  -0.006569598
C        0.245474890   0.501800512   0.007109364
C        0.300252037   0.413832881   0.062203979
C        0.613580843   0.413832881   0.062203979
C        0.756325622   0.501800512   0.007109364
C        0.835504123   0.418477543  -0.006569598
C        0.004927321   0.754688363   0.001717609
C        0.084697738   0.669395478  -0.001299615
C        0.249761042   0.754688363   0.001717609
C        0.329542254   0.668199093   0.000644952
C        0.490135585   0.757686670  -0.011043035
Cl       0.573198713   0.646397429  -0.052937836
C        0.767551084   0.757686670  -0.011043035
C        0.838656838   0.668199093   0.000644952
C        0.086790826   0.921541035   0.005643913
C        0.334750210   0.921541035   0.005643913
C        0.583618345   0.920131488  -0.010497077
C        0.836513142   0.920131488  -0.010497077
O        0.607371571   0.467463686   0.135065574
O        0.360092114   0.467463686   0.135065574
K_POINTS automatic 
  16 16 1   0 0 0 

