 &CONTROL
                 calculation = 'scf' ,
                      outdir = './tmp/' ,
                  pseudo_dir = '/home/deleted/pseudo_psl' ,
                      prefix = 'GF_op' ,
                   verbosity = 'high' ,
               etot_conv_thr = 1.0D-5 ,
               forc_conv_thr = 4.0D-4 ,
                       nstep = 1000 ,
                    dipfield = .true. ,
 /
 &SYSTEM
                       ibrav = 4,
                           A = 9.88 ,
                           C = 15 ,
                         nat = 33,
                        ntyp = 3,
                     ecutwfc = 40.424239707 ,
                     ecutrho = 404.24239707 ,
                 occupations = 'smearing' ,
                     degauss = 0.01 ,
				   input_dft = 'vdW-DF' ,
 /
 &ELECTRONS
            electron_maxstep = 50001,
                    conv_thr = 1.0D-6 ,
                 mixing_mode = 'local-TF' ,
                 mixing_beta = 0.5 ,
 /
ATOMIC_SPECIES
    C   12.01100  C.revpbe-n-kjpaw_psl.0.1.UPF 
    F   18.99800  F.revpbe-n-kjpaw_psl.0.1.UPF 
    O   15.99940  O.revpbe-n-kjpaw_psl.0.1.UPF 
ATOMIC_POSITIONS crystal 
C        0.002542567   0.001660829   0.008073236
C        0.246824047  -0.006351906   0.010387269
C        0.499118262   0.001660829   0.008073236
C        0.753638981   0.007277963   0.001718872
C        0.004081663   0.252512303   0.005574601
C        0.085841039   0.167945040   0.007769421
C        0.252878244   0.246749854   0.008571367
C        0.328173680   0.156347363   0.009946650
C        0.493871611   0.246749854   0.008571367
C        0.582103999   0.167945040   0.007769421
C        0.748430641   0.252512303   0.005574601
C        0.835663285   0.171326571   0.003766804
C       -0.000282763   0.499434474   0.006405432
C        0.090763678   0.417684117   0.005947077
C        0.265253638   0.497251848   0.006138867
C        0.347745585   0.408561914   0.006695132
C        0.560816328   0.408561914   0.006695132
C        0.731998211   0.497251848   0.006138867
C        0.826920438   0.417684117   0.005947077
C       -0.003947499   0.746662835   0.008587967
C        0.082018897   0.664037795   0.008416821
C        0.250610334   0.746662835   0.008587967
C        0.338822834   0.665114150   0.005850917
C        0.499043692   0.762903348   0.005669998
F        0.593457277   0.686914556  -0.035231897
C        0.763859656   0.762903348   0.005669998
C        0.826291315   0.665114150   0.005850917
C        0.079999736   0.912501411   0.009663377
C        0.332501675   0.912501411   0.009663377
C        0.586853195   0.923709307   0.003272018
C        0.836856111   0.923709307   0.003272018
O        0.619502378   0.739004756   0.142800840
O        0.554496757   0.608993516   0.186023389
K_POINTS automatic 
  16 16 1   0 0 0 

