 &CONTROL
                 calculation = 'bands' ,
                      outdir = './tmp/' ,
                  pseudo_dir = '/home/deleted/pseudo_psl' ,
                      prefix = 'GCl_ip' ,
                    dipfield = .true. ,
                   verbosity = 'high',
                       nstep = 1000,
               forc_conv_thr = 4.0D-4,
               etot_conv_thr = 1.0D-5
 /
 &SYSTEM
                       ibrav = 4,
                           A = 9.88 ,
                           C = 15 ,
                         nat = 31,
                        ntyp = 2,
                     ecutwfc = 40.424239707 ,
                     ecutrho = 404.24239707 ,
                 occupations = 'tetrahedra' ,
                     degauss = 0.01 ,
				   input_dft = 'vdW-DF' ,
 /
 &ELECTRONS
            electron_maxstep = 50001,
                    conv_thr = 1.0D-6 ,
                 mixing_mode = 'local-TF' ,
                 mixing_beta = 0.5 ,
 /
ATOMIC_SPECIES
    C   12.01100  C.revpbe-n-kjpaw_psl.0.1.UPF 
   Cl   35.45200  Cl.revpbe-n-kjpaw_psl.0.3.0.UPF 
ATOMIC_POSITIONS crystal 
C       -0.000798862   0.000182994   0.000000000
C        0.248021896   0.000517631   0.000000000
C        0.498482041  -0.011757324   0.000000000
C        0.748859881  -0.006057434   0.000000000
C        0.002190078   0.250594551   0.000000000
C        0.085740691   0.170507397   0.000000000
C        0.258168383   0.266571942   0.000000000
C        0.317438341   0.164506067   0.000000000
Cl       0.513555314   0.261751911   0.000000000
C        0.595189151   0.146423556   0.000000000
C        0.756701704   0.245627431   0.000000000
C        0.836755683   0.161833842   0.000000000
C       -0.000109232   0.499561953   0.000000000
C        0.082254722   0.416725863   0.000000000
C        0.248160731   0.505032654   0.000000000
C        0.341503922   0.438582235   0.000000000
C        0.601158977   0.447894568   0.000000000
C        0.758832991   0.503795292   0.000000000
C        0.836414959   0.414603223   0.000000000
C       -0.000750104   0.751781827   0.000000000
C        0.080571592   0.667496061   0.000000000
C        0.246047795   0.752018341   0.000000000
C        0.327563672   0.669833418   0.000000000
C        0.492697240   0.741718903   0.000000000
C        0.562027371   0.649358440   0.000000000
C        0.737522978   0.737382192   0.000000000
C        0.834784223   0.668909211   0.000000000
C        0.082385216   0.917780205   0.000000000
C        0.331352191   0.916911286   0.000000000
C        0.582212430   0.907369435   0.000000000
C        0.828397352   0.909209001   0.000000000
K_POINTS crystal_b 
4
0.0000000000    0.0000000000    0.0000000000 17
0.0000000000    0.5000000000    0.0000000000 10
0.3333333333    0.3333333333    0.0000000000 20
0.0000000000    0.0000000000    0.0000000000 1

