 &CONTROL
                 calculation = 'scf' ,
                      outdir = './tmp/' ,
                  pseudo_dir = '/home/deleted/pseudo_psl' ,
                      prefix = 'MVG_to' ,
                    dipfield = .true. ,
                   verbosity = 'high',
                       nstep = 1000,
               forc_conv_thr = 4.0D-4,
               etot_conv_thr = 1.0D-5
 /
 &SYSTEM
                       ibrav = 4,
                           A = 9.88 ,
                           C = 15 ,
                         nat = 33,
                        ntyp = 2,
                     ecutwfc = 40.424239707 ,
                     ecutrho = 404.24239707 ,
                 occupations = 'smearing' ,
                     degauss = 0.01 ,
				   input_dft = 'vdW-DF' ,
    nspin = 2 ,
    starting_magnetization(1) = 0.5,
	starting_magnetization(2) = 0.5,
 /
 &ELECTRONS
            electron_maxstep = 50001,
                    conv_thr = 1.0D-6 ,
                 mixing_mode = 'local-TF' ,
                 mixing_beta = 0.5 ,
 /
ATOMIC_SPECIES
    C   12.01100  C.revpbe-n-kjpaw_psl.0.1.UPF 
    O   15.99940  O.revpbe-n-kjpaw_psl.0.1.UPF 
ATOMIC_POSITIONS crystal 
C        0.001806692   0.002104215  -0.007149318
C        0.248757130  -0.002485739  -0.005626659
C        0.500297524   0.002104215  -0.007149318
C        0.752452438   0.004904876  -0.010445820
C        0.003039670   0.252902550  -0.003091176
C        0.085512918   0.168859374  -0.004520014
C        0.253441335   0.250280593  -0.003203123
C        0.330753747   0.161507494  -0.004031718
C        0.496839258   0.250280593  -0.003203123
C        0.583346455   0.168859374  -0.004520014
C        0.749862881   0.252902550  -0.003091176
C        0.835483091   0.170966183  -0.005180549
C        0.000578106   0.501156211  -0.002009159
C        0.088604459   0.418713737  -0.001583213
C        0.261036688   0.501374033  -0.002053681
C        0.341292508   0.412815764   0.000957607
C        0.571523255   0.412815764   0.000957607
C        0.740337345   0.501374033  -0.002053681
C        0.830109277   0.418713737  -0.001583213
C       -0.002266513   0.748823727  -0.005579647
C        0.083244166   0.666488334  -0.003027342
C        0.251090240   0.748823727  -0.005579647
C        0.336407007   0.667869149  -0.008425119
C        0.502898360   0.754270464  -0.017133536
C        0.591636040   0.683272081  -0.030775048
C        0.751372105   0.754270464  -0.017133536
C        0.831462142   0.667869149  -0.008425119
C        0.081943630   0.915708568  -0.006640036
C        0.333764937   0.915708568  -0.006640036
C        0.585913700   0.921611856  -0.011398398
C        0.835698154   0.921611856  -0.011398398
O        0.690518802   0.881037604   0.202552618
O        0.617909115   0.735818232   0.198182985
K_POINTS automatic 
  16 16 1   0 0 0 

