 &CONTROL
                 calculation = 'nscf' ,
                      outdir = './tmp/' ,
                  pseudo_dir = '/home/deleted/pseudo_psl' ,
                      prefix = 'GI_op' ,
                   verbosity = 'high' ,
               etot_conv_thr = 1.0D-5 ,
               forc_conv_thr = 4.0D-4 ,
                       nstep = 1000 ,
                    dipfield = .true. ,
 /
 &SYSTEM
                       ibrav = 4,
                           A = 9.88 ,
                           C = 15 ,
                         nat = 34,
                        ntyp = 4,
                     ecutwfc = 40.424239707 ,
                     ecutrho = 404.24239707 ,
                 occupations = 'tetrahedra' ,
                     degauss = 0.01 ,
				   input_dft = 'vdW-DF' ,
    nspin = 2 ,
    starting_magnetization(1) = 0.5,
    starting_magnetization(2) = 0.5,
    starting_magnetization(3) = 0.5,
 /
 &ELECTRONS
            electron_maxstep = 50001,
                    conv_thr = 1.0D-6 ,
                 mixing_mode = 'local-TF' ,
                 mixing_beta = 0.5 ,
 /
ATOMIC_SPECIES
    C   12.01100  C.revpbe-n-kjpaw_psl.0.1.UPF 
    I  126.90400  I.revpbe-n-kjpaw_psl.0.2.UPF 
    O   15.99940  O.revpbe-n-kjpaw_psl.0.1.UPF 
    H   1.008000  H.revpbe-kjpaw_psl.0.1.UPF
ATOMIC_POSITIONS (crystal)
C        0.001860536   0.017437291  -0.009836271
C        0.247629905   0.006767952  -0.007438704
C        0.501259583   0.018405835   0.000627578
C        0.761953294   0.032309021  -0.002050020
C        0.008607266   0.272206271  -0.011694611
C        0.087218109   0.184352346  -0.011373367
C        0.254947307   0.262316515  -0.011429764
C        0.328667463   0.169391209  -0.009204815
C        0.493317673   0.260956420  -0.008421317
C        0.582892961   0.184069308  -0.004764003
C        0.750342398   0.273051160  -0.006428096
C        0.840449455   0.193077667  -0.007231446
C        0.002335235   0.517663490  -0.010351979
C        0.095204431   0.436836473  -0.012137277
C        0.272354647   0.515857402  -0.011046118
C        0.354276072   0.423178570  -0.011236563
C        0.556018656   0.424275736  -0.009708226
C        0.726619378   0.515507785  -0.009544454
C        0.825807070   0.436374012  -0.009346829
C       -0.009068355   0.762862660  -0.008256107
C        0.084614214   0.681085380  -0.008318186
C        0.258099240   0.759953647  -0.005316938
C        0.349606239   0.679774877  -0.005257136
C        0.528986338   0.772738423   0.014189853
I        0.591820577   0.477862406   0.230128004
C        0.738267358   0.776887639  -0.006984616
C        0.814549190   0.685231746  -0.008687356
C        0.078612439   0.927158995  -0.008830479
C        0.337022344   0.928372896  -0.003129552
C        0.594890409   0.942895092   0.012995860
C        0.834841962   0.940383909  -0.007121506
O        0.593505073   0.500060077   0.356277830
O        0.557038212   0.842005433   0.099970535
H        0.624351280   0.651272683   0.188446610
K_POINTS automatic 
  20 20 1   0 0 0 

