&PROJWFC
  outdir = './tmp',
  prefix = 'I',
  filpdos = 'I-pdos',
  ngauss = 1,
  degauss = 0.01,
  DeltaE = 0.01,
  lsym = .true.
/
