 &CONTROL
                 calculation = 'nscf' ,
                      outdir = './tmp/' ,
                  pseudo_dir = '/home/deleted/pseudo_psl' ,
                      prefix = 'GBr_ip' ,
                   verbosity = 'high' ,
               etot_conv_thr = 1.0D-5 ,
               forc_conv_thr = 4.0D-4 ,
                       nstep = 1000 ,
                    dipfield = .true. ,
 /
 &SYSTEM
                       ibrav = 4,
                           A = 9.88 ,
                           C = 15 ,
                         nat = 33,
                        ntyp = 3,
                     ecutwfc = 40.424239707 ,
                     ecutrho = 404.24239707 ,
                 occupations = 'tetrahedra' ,
                     degauss = 0.01 ,
				   input_dft = 'vdW-DF' ,
    nspin = 2 ,
    starting_magnetization(1) = 0.5,
    starting_magnetization(2) = 0.5,
    starting_magnetization(3) = 0.5,
 /
 &ELECTRONS
            electron_maxstep = 50001,
                    conv_thr = 1.0D-6 ,
                 mixing_mode = 'local-TF' ,
                 mixing_beta = 0.5 ,
 /
ATOMIC_SPECIES
    C   12.01100  C.revpbe-n-kjpaw_psl.0.1.UPF 
   Br   79.90350  Br.revpbe-n-kjpaw_psl.0.2.UPF 
    O   15.99940  O.revpbe-n-kjpaw_psl.0.1.UPF 
ATOMIC_POSITIONS (crystal)
C       -0.001792163  -0.005253404   0.002566307
C        0.250709639   0.001419277   0.006091213
C        0.496538760  -0.005253404   0.002566307
C        0.744747311  -0.010505379  -0.004213360
C       -0.005616135   0.241718023   0.008174599
C        0.080078485   0.161861599   0.002592380
C        0.247671676   0.248788571  -0.005717112
C        0.333545244   0.167090489  -0.004147933
C        0.501116896   0.248788571  -0.005717112
C        0.581783113   0.161861599   0.002592380
C        0.747334157   0.241718023   0.008174599
C        0.827587439   0.155174879   0.006022625
C       -0.002866715   0.494266571   0.019385051
C        0.075062854   0.408412637   0.013515429
C        0.237872401   0.493298912   0.001157014
C        0.314113630   0.411900708  -0.014220951
C        0.597787075   0.411900708  -0.014220951
C        0.755426511   0.493298912   0.001157014
C        0.833349782   0.408412637   0.013515429
C        0.003256427   0.748208953   0.013502131
C        0.081177009   0.662354019   0.019368566
C        0.244952527   0.748208953   0.013502131
C        0.322887451   0.663332294   0.001132509
C        0.480476330   0.744711882  -0.014301153
Br       0.539045576   0.578091152  -0.040184235
C        0.764235552   0.744711882  -0.014301153
C        0.840444842   0.663332294   0.001132509
C        0.083913623   0.914897167   0.008201313
C        0.330983542   0.914897167   0.008201313
C        0.577182213   0.907811257  -0.005779211
C        0.830629043   0.907811257  -0.005779211
O        0.523334299   0.546668598   0.183204533
O        0.596364933   0.692729866   0.192827032
K_POINTS automatic 
  20 20 1   0 0 0 

