 &CONTROL
                 calculation = 'scf' ,
                      outdir = './tmp_subs/' ,
                  pseudo_dir = '/home/deleted/pseudo_psl' ,
                      prefix = 'GCl_ip_subs' ,
                   verbosity = 'high' ,
               etot_conv_thr = 1.0D-5 ,
               forc_conv_thr = 4.0D-4 ,
                       nstep = 1000 ,
                    dipfield = .true. ,
 /
 &SYSTEM
                       ibrav = 4,
                           A = 9.88 ,
                           C = 15 ,
                         nat = 31,
                        ntyp = 2,
                     ecutwfc = 40.424239707 ,
                     ecutrho = 404.24239707 ,
                 occupations = 'smearing' ,
                     degauss = 0.01 ,
				   input_dft = 'vdW-DF' ,
 /
 &ELECTRONS
            electron_maxstep = 50001,
                    conv_thr = 1.0D-6 ,
                 mixing_mode = 'local-TF' ,
                 mixing_beta = 0.5 ,
 /
ATOMIC_SPECIES
    C   12.01100  C.revpbe-n-kjpaw_psl.0.1.UPF 
   Cl   35.45200  Cl.revpbe-n-kjpaw_psl.0.3.0.UPF 
ATOMIC_POSITIONS crystal 
C        0.000802336   0.005190602   0.008226409
C        0.246064977  -0.001703106   0.016335728
C        0.498203058   0.005188356   0.008229925
C        0.751647160   0.010224699  -0.010084222
C        0.001916562   0.255663599   0.007286155
C        0.084037893   0.171425574   0.011657153
C        0.251343109   0.251181510   0.015248872
C        0.327517002   0.161491350   0.017721135
C        0.493557211   0.251325314   0.015373794
C        0.581104437   0.171475583   0.011573977
C        0.747424599   0.255691701   0.007344852
C        0.833795127   0.174057280   0.001791204
C       -0.001680663   0.502985133   0.008305494
C        0.088099858   0.420975981   0.008194916
C        0.262195971   0.501867458   0.006587349
C        0.344426466   0.413312529   0.010560158
C        0.562287309   0.413453168   0.010518501
C        0.733273437   0.501743835   0.004778903
C        0.826558759   0.421231999   0.007626508
C       -0.004159139   0.750817118   0.010000005
C        0.080865783   0.668018886   0.012096047
C        0.248647883   0.750853886   0.010407201
C        0.335065160   0.669461105   0.000188640
C        0.494072788   0.764980375  -0.017029198
Cl       0.590056924   0.686972301  -0.084740040
C        0.767376390   0.766474898  -0.022311789
C        0.828282083   0.669571924  -0.002435502
C        0.079120241   0.916887792   0.012381747
C        0.331228618   0.916808826   0.012572256
C        0.584040218   0.927386299  -0.008609986
C        0.836998254   0.927200594  -0.009659371
K_POINTS automatic 
  16 16 1   0 0 0 

