 &CONTROL
                 calculation = 'scf' ,
                      outdir = './tmp/' ,
                  pseudo_dir = '/home/deleted/pseudo_psl' ,
                      prefix = 'GBr_ip' ,
                   verbosity = 'high' ,
               etot_conv_thr = 1.0D-5 ,
               forc_conv_thr = 4.0D-4 ,
                       nstep = 1000 ,
                    dipfield = .true. ,
 /
 &SYSTEM
                       ibrav = 4,
                           A = 9.88 ,
                           C = 15 ,
                         nat = 33,
                        ntyp = 3,
                     ecutwfc = 40.424239707 ,
                     ecutrho = 404.24239707 ,
                 occupations = 'smearing' ,
                     degauss = 0.01 ,
				   input_dft = 'vdW-DF' ,
 /
 &ELECTRONS
            electron_maxstep = 50001,
                    conv_thr = 1.0D-6 ,
                 mixing_mode = 'local-TF' ,
                 mixing_beta = 0.5 ,
 /
ATOMIC_SPECIES
    C   12.01100  C.revpbe-n-kjpaw_psl.0.1.UPF 
   Br   79.90350  Br.revpbe-n-kjpaw_psl.0.2.UPF 
    O   15.99940  O.revpbe-n-kjpaw_psl.0.1.UPF 
ATOMIC_POSITIONS crystal 
C        0.000178822   0.002556033   0.004941002
C        0.252530561   0.009067734   0.006240160
C        0.498412594   0.002135194   0.001936739
C        0.746318102  -0.003163411  -0.002701881
C       -0.003748175   0.249428945   0.006329723
C        0.082169008   0.169681360   0.001901945
C        0.249838103   0.256852872  -0.006624607
C        0.335383149   0.174960154  -0.002734259
C        0.502938814   0.256693584  -0.001099328
C        0.583549692   0.169259109   0.004955549
C        0.749144152   0.249204574   0.010302064
C        0.829368137   0.162731308   0.006256516
C       -0.000599305   0.501862912   0.018178806
C        0.076946207   0.416160701   0.009014103
C        0.239206147   0.500956595  -0.005424518
C        0.316259567   0.419768339  -0.018438090
C        0.598967035   0.420460110  -0.003415649
C        0.756605570   0.500881505   0.010955746
C        0.835279513   0.415644522   0.017372098
C        0.005536657   0.756182253   0.017380794
C        0.083464101   0.669995935   0.018172269
C        0.246705005   0.755664115   0.009012250
C        0.324140985   0.670838492  -0.005412788
C        0.482401593   0.752022325  -0.018392884
Br       0.543082893   0.585881419  -0.036470207
C        0.764379092   0.751320723  -0.003350971
C        0.841608467   0.670911616   0.010984263
C        0.085837526   0.922624617   0.010294207
C        0.332751501   0.922400457   0.006339617
C        0.578885642   0.914938339  -0.006583370
C        0.832130368   0.915093150  -0.001072544
O        0.509450759   0.585382577   0.155835602
O        0.387544379   0.584935179   0.185317642
K_POINTS automatic 
  16 16 1   0 0 0 

