 &CONTROL
                 calculation = 'bands' ,
                      outdir = './tmp/' ,
                  pseudo_dir = '/home/deleted/pseudo_psl' ,
                      prefix = 'GBr_op' ,
                   verbosity = 'high' ,
               etot_conv_thr = 1.0D-5 ,
               forc_conv_thr = 4.0D-4 ,
                       nstep = 1000 ,
                    dipfield = .true. ,
 /
 &SYSTEM
                       ibrav = 4,
                           A = 9.88 ,
                           C = 15 ,
                         nat = 34,
                        ntyp = 4,
                     ecutwfc = 40.424239707 ,
                     ecutrho = 404.24239707 ,
                 occupations = 'tetrahedra' ,
                     degauss = 0.01 ,
				   input_dft = 'vdW-DF' ,
 /
 &ELECTRONS
            electron_maxstep = 50001,
                    conv_thr = 1.0D-6 ,
                 mixing_mode = 'local-TF' ,
                 mixing_beta = 0.5 ,
 /
ATOMIC_SPECIES
    C   12.01100  C.revpbe-n-kjpaw_psl.0.1.UPF 
   Br   79.90350  Br.revpbe-n-kjpaw_psl.0.2.UPF 
    O   15.99940  O.revpbe-n-kjpaw_psl.0.1.UPF 
    H   1.008000  H.revpbe-kjpaw_psl.0.1.UPF
ATOMIC_POSITIONS crystal 
C       -0.023167620   0.004649427  -0.010185178
C        0.223056235  -0.005560207  -0.010125541
C        0.479568151   0.004689531  -0.009890800
C        0.735951861   0.020120835  -0.010072974
C       -0.013988903   0.261357716  -0.009761314
C        0.063248497   0.171980078  -0.009714172
C        0.230191307   0.248654763  -0.009650672
C        0.304117434   0.156494526  -0.009619434
C        0.470240729   0.248668476  -0.009589291
C        0.560531606   0.172019019  -0.009603823
C        0.727162000   0.261368535  -0.009710651
C        0.816993563   0.182178438  -0.009742707
C       -0.020665078   0.506909807  -0.010460965
C        0.074464586   0.426100356  -0.010080454
C        0.251505299   0.503774714  -0.010301616
C        0.329888647   0.410635273  -0.009942371
C        0.532543064   0.410637873  -0.010047323
C        0.704108110   0.503769198  -0.010704987
C        0.803445377   0.426103404  -0.010207764
C       -0.034420515   0.750451996  -0.011462876
C        0.060663133   0.669680313  -0.011051984
C        0.236590304   0.750469017  -0.010805208
C        0.335788868   0.672675473  -0.010808049
C        0.507213338   0.766052157  -0.010905174
Br       0.906110513   0.753634160   0.243507150
C        0.710319482   0.765936383  -0.011008437
C        0.788692703   0.672617609  -0.011542225
C        0.053991327   0.915200776  -0.010747002
C        0.312930485   0.915247575  -0.010273055
C        0.569900831   0.928086016  -0.010282419
C        0.809923314   0.928075983  -0.010425882
O        0.603620861   0.701143061   0.201838533
O        0.754927073   0.826440746   0.224236816
H        0.608442868   0.700548653   0.136038109
K_POINTS automatic  
4
0.0000000000    0.0000000000    0.0000000000 17
0.0000000000    0.5000000000    0.0000000000 10
0.3333333333    0.3333333333    0.0000000000 20
0.0000000000    0.0000000000    0.0000000000 1

