 &CONTROL
                 calculation = 'relax' ,
                      outdir = './tmp/' ,
                  pseudo_dir = '/home/deleted/pseudo_psl' ,
                      prefix = 'GBr_ip' ,
                   verbosity = 'high' ,
               etot_conv_thr = 1.0D-5 ,
               forc_conv_thr = 4.0D-4 ,
                       nstep = 1000 ,
                    dipfield = .true. ,
 /
 &SYSTEM
                       ibrav = 4,
                           A = 9.88 ,
                           C = 15 ,
                         nat = 33,
                        ntyp = 3,
                     ecutwfc = 40.424239707 ,
                     ecutrho = 404.24239707 ,
                 occupations = 'smearing' ,
                     degauss = 0.01 ,
				   input_dft = 'vdW-DF' ,
 /
 &ELECTRONS
            electron_maxstep = 50001,
                    conv_thr = 1.0D-6 ,
                 mixing_mode = 'local-TF' ,
                 mixing_beta = 0.5 ,
 /
 &IONS
                ion_dynamics = 'bfgs' ,
 /
ATOMIC_SPECIES
    C   12.01100  C.revpbe-n-kjpaw_psl.0.1.UPF 
   Br   79.90350  Br.revpbe-n-kjpaw_psl.0.2.UPF 
    O   15.99940  O.revpbe-n-kjpaw_psl.0.1.UPF 
ATOMIC_POSITIONS crystal 
C        0.002439086   0.002944845   0.000000000
C        0.254320658   0.008641316   0.000000000
C        0.500505760   0.002944845   0.000000000
C        0.748747518  -0.002504964   0.000000000
C       -0.001885458   0.249536157   0.000000000
C        0.083500620   0.169099480   0.000000000
C        0.250765840   0.255587672   0.000000000
C        0.337259787   0.174519575   0.000000000
C        0.504821833   0.255587672   0.000000000
C        0.585598859   0.169099480   0.000000000
C        0.751421615   0.249536157   0.000000000
C        0.831693052   0.163386104   0.000000000
C        0.001085067   0.502170135   0.000000000
C        0.078052560   0.415986886   0.000000000
C        0.241336489   0.500880118   0.000000000
C        0.318490322   0.418404066   0.000000000
C        0.599913742   0.418404066   0.000000000
C        0.759543629   0.500880118   0.000000000
C        0.837934325   0.415986886   0.000000000
C        0.007941881   0.756125625   0.000000000
C        0.085024785   0.670049571   0.000000000
C        0.248183745   0.756125625   0.000000000
C        0.326483654   0.671134438   0.000000000
C        0.486127819   0.753571252   0.000000000
Br       0.542987654   0.585975309   0.000000000
C        0.767443433   0.753571252   0.000000000
C        0.844650783   0.671134438   0.000000000
C        0.087877725   0.922536591   0.000000000
C        0.334658865   0.922536591   0.000000000
C        0.581207170   0.916407682   0.000000000
C        0.835200511   0.916407682   0.000000000
O        0.416666666   0.583333333   0.159666667
O        0.416666666   0.583333333   0.240333333
K_POINTS automatic 
  4 4 1   0 0 0 

