 &CONTROL
                 calculation = 'scf' ,
                      outdir = './tmp/' ,
                  pseudo_dir = '/home/deleted/pseudo_psl' ,
                      prefix = 'GBr_ip' ,
                   verbosity = 'high' ,
               etot_conv_thr = 1.0D-5 ,
               forc_conv_thr = 4.0D-4 ,
                       nstep = 1000 ,
                    dipfield = .true. ,
 /
 &SYSTEM
                       ibrav = 4,
                           A = 9.88 ,
                           C = 15 ,
                         nat = 33,
                        ntyp = 3,
                     ecutwfc = 40.424239707 ,
                     ecutrho = 404.24239707 ,
                 occupations = 'smearing' ,
                     degauss = 0.01 ,
				   input_dft = 'vdW-DF' ,
 /
 &ELECTRONS
            electron_maxstep = 50001,
                    conv_thr = 1.0D-6 ,
                 mixing_mode = 'local-TF' ,
                 mixing_beta = 0.5 ,
 /
ATOMIC_SPECIES
    C   12.01100  C.revpbe-n-kjpaw_psl.0.1.UPF 
   Br   79.90350  Br.revpbe-n-kjpaw_psl.0.2.UPF 
    O   15.99940  O.revpbe-n-kjpaw_psl.0.1.UPF 
ATOMIC_POSITIONS crystal 
C       -0.010120418   0.002604178   0.002457497
C        0.242637767   0.009538905   0.006208891
C        0.488425663   0.002910466   0.004456988
C        0.736576353  -0.002682942  -0.002623430
C       -0.013803766   0.249663431   0.009449096
C        0.071870796   0.169776828   0.003919982
C        0.239790967   0.257101570  -0.003110758
C        0.325606680   0.175342615  -0.003334935
C        0.493129492   0.257276616  -0.006039718
C        0.573593381   0.170075018   0.002601900
C        0.739216582   0.249797795   0.007458903
C        0.819442305   0.163147350   0.006494333
C       -0.011284482   0.502256453   0.018721559
C        0.066647554   0.416168501   0.015751128
C        0.230180440   0.501333293   0.007130688
C        0.307180413   0.420757848  -0.007602351
C        0.589761924   0.420357686  -0.016425374
C        0.747598809   0.501354781  -0.002153712
C        0.825219398   0.416450137   0.011126922
C       -0.004898565   0.756188026   0.011157763
C        0.072784787   0.670380669   0.018690819
C        0.236783231   0.756476868   0.015941908
C        0.315186139   0.671285515   0.007499766
C        0.472904000   0.751876130  -0.006550819
Br       0.529957614   0.586465610  -0.037421551
C        0.755502060   0.752215326  -0.015316567
C        0.832502306   0.671217315  -0.001844519
C        0.075759957   0.922861416   0.007269794
C        0.322843877   0.923005933   0.009660222
C        0.569030869   0.915542878  -0.002166159
C        0.822131845   0.915387259  -0.005459399
O        0.544372613   0.582173376   0.155477842
O        0.660136069   0.575026486   0.188573288
K_POINTS automatic 
  16 16 1   0 0 0 

