 &CONTROL
                 calculation = 'bands' ,
                      outdir = './tmp/' ,
                  pseudo_dir = '/home/deleted/pseudo_psl' ,
                      prefix = 'GBr_op' ,
                   verbosity = 'high' ,
               etot_conv_thr = 1.0D-5 ,
               forc_conv_thr = 4.0D-4 ,
                       nstep = 1000 ,
                    dipfield = .true. ,
 /
 &SYSTEM
                       ibrav = 4,
                           A = 9.88 ,
                           C = 15 ,
                         nat = 34,
                        ntyp = 4,
                     ecutwfc = 40.424239707 ,
                     ecutrho = 404.24239707 ,
                 occupations = 'tetrahedra' ,
                     degauss = 0.01 ,
				   input_dft = 'vdW-DF' ,
 /
 &ELECTRONS
            electron_maxstep = 50001,
                    conv_thr = 1.0D-6 ,
                 mixing_mode = 'local-TF' ,
                 mixing_beta = 0.5 ,
 /
ATOMIC_SPECIES
    C   12.01100  C.revpbe-n-kjpaw_psl.0.1.UPF 
   Br   79.90350  Br.revpbe-n-kjpaw_psl.0.2.UPF 
    O   15.99940  O.revpbe-n-kjpaw_psl.0.1.UPF 
    H   1.008000  H.revpbe-kjpaw_psl.0.1.UPF
ATOMIC_POSITIONS crystal 
C       -0.001750786  -0.004327607  -0.003237083
C        0.244513363  -0.014711999  -0.003142073
C        0.501173181  -0.004338961  -0.003617348
C        0.757529737   0.011319984  -0.003893950
C        0.007621945   0.252521600  -0.002704881
C        0.084801386   0.163027663  -0.002721933
C        0.251771092   0.239636129  -0.002579479
C        0.325556978   0.147379101  -0.002815475
C        0.491611677   0.239618733  -0.002859284
C        0.581968176   0.163012913  -0.003088304
C        0.748632494   0.252514183  -0.002994833
C        0.838555185   0.173375355  -0.003156206
C        0.000852718   0.497973231  -0.003033970
C        0.096309764   0.417291106  -0.002766298
C        0.273746749   0.495004236  -0.003019717
C        0.352225576   0.401695511  -0.002683561
C        0.553273478   0.401657291  -0.002978471
C        0.724999025   0.494972070  -0.003256656
C        0.824709648   0.417283079  -0.002971782
C       -0.013184957   0.741459198  -0.003481781
C        0.082251823   0.660789953  -0.003404168
C        0.258356436   0.741458134  -0.003550275
C        0.358127634   0.663858300  -0.003684236
C        0.529757219   0.757177199  -0.004241221
Br       0.565165070   0.606669888   0.225960466
C        0.731128566   0.757147296  -0.004158235
C        0.809439648   0.663836412  -0.003693453
C        0.075439868   0.906190644  -0.003281216
C        0.334492156   0.906196032  -0.003458490
C        0.591516770   0.919120035  -0.004245568
C        0.831336097   0.919111525  -0.003863554
O        0.728815226   0.830767989   0.228106506
O        0.663630089   0.930582965   0.215890244
H        0.638584645   0.944776946   0.277397831
K_POINTS automatic  
4
0.0000000000    0.0000000000    0.0000000000 17
0.0000000000    0.5000000000    0.0000000000 10
0.3333333333    0.3333333333    0.0000000000 20
0.0000000000    0.0000000000    0.0000000000 1

