 &CONTROL
                 calculation = 'nscf' ,
                      outdir = './tmp/' ,
                  pseudo_dir = '/home/deleted/pseudo_psl' ,
                      prefix = 'GF_ip' ,
                   verbosity = 'high' ,
               etot_conv_thr = 1.0D-5 ,
               forc_conv_thr = 4.0D-4 ,
                       nstep = 1000 ,
                    dipfield = .true. ,
 /
 &SYSTEM
                       ibrav = 4,
                           A = 9.88 ,
                           C = 15 ,
                         nat = 33,
                        ntyp = 3,
                     ecutwfc = 40.424239707 ,
                     ecutrho = 404.24239707 ,
                 occupations = 'tetrahedra' ,
                     degauss = 0.01 ,
				   input_dft = 'vdW-DF' ,
 /
 &ELECTRONS
            electron_maxstep = 50001,
                    conv_thr = 1.0D-6 ,
                 mixing_mode = 'local-TF' ,
                 mixing_beta = 0.5 ,
 /
ATOMIC_SPECIES
    C   12.01100  C.revpbe-n-kjpaw_psl.0.1.UPF 
    F   18.99800  F.revpbe-n-kjpaw_psl.0.1.UPF 
    O   15.99940  O.revpbe-n-kjpaw_psl.0.1.UPF 
ATOMIC_POSITIONS crystal 
C        0.002237866   0.000453038   0.002692319
C        0.246318246  -0.007363509   0.004942698
C        0.498215172   0.000453038   0.002692319
C        0.752952268   0.005904535  -0.001690213
C        0.003233705   0.251064556   0.001943735
C        0.085169464   0.166625853   0.003301646
C        0.251990629   0.245281441   0.004397345
C        0.327734490   0.155468980   0.005246336
C        0.493290812   0.245281441   0.004397345
C        0.581456388   0.166625853   0.003301646
C        0.747830850   0.251064556   0.001943735
C        0.834944543   0.169889087   0.000716347
C       -0.001142977   0.497714047   0.001939428
C        0.089500549   0.416274077   0.001871362
C        0.263768338   0.495725639   0.001549601
C        0.345778409   0.407230788   0.002993230
C        0.561452377   0.407230788   0.002993230
C        0.731957301   0.495725639   0.001549601
C        0.826773528   0.416274077   0.001871362
C       -0.003937310   0.745416678   0.002901540
C        0.081360903   0.662721807   0.003017045
C        0.249353987   0.745416678   0.002901540
C        0.337328844   0.663687122   0.000420690
C        0.496300014   0.763009050  -0.002184771
F        0.589819836   0.679639673  -0.017305371
C        0.766709036   0.763009050  -0.002184771
C        0.826358277   0.663687122   0.000420690
C        0.079653662   0.911462008   0.003889337
C        0.331808344   0.911462008   0.003889337
C        0.586495067   0.922720963  -0.001252538
C        0.836225894   0.922720963  -0.001252538
O        0.660472628   0.690562649   0.179043369
O        0.530090020   0.690562649   0.179043369
K_POINTS automatic 
  20 20 1   0 0 0 

