 &CONTROL
                 calculation = 'bands' ,
                      outdir = './tmp/' ,
                  pseudo_dir = '/home/deleted/pseudo_psl' ,
                      prefix = 'GCl_op' ,
                   verbosity = 'high' ,
               etot_conv_thr = 1.0D-5 ,
               forc_conv_thr = 4.0D-4 ,
                       nstep = 1000 ,
                    dipfield = .true. ,
 /
 &SYSTEM
                       ibrav = 4,
                           A = 9.88 ,
                           C = 15 ,
                         nat = 33,
                        ntyp = 3,
                     ecutwfc = 40.424239707 ,
                     ecutrho = 404.24239707 ,
                 occupations = 'tetrahedra' ,
                     degauss = 0.01 ,
				   input_dft = 'vdW-DF' ,
    nspin = 2 ,
    starting_magnetization(1) = 0.5,
    starting_magnetization(2) = 0.5,
    starting_magnetization(3) = 0.7,
 /
 &ELECTRONS
            electron_maxstep = 50001,
                    conv_thr = 1.0D-6 ,
                 mixing_mode = 'local-TF' ,
                 mixing_beta = 0.5 ,
 /
ATOMIC_SPECIES
    C   12.01100  C.revpbe-n-kjpaw_psl.0.1.UPF 
   Cl   35.45200  Cl.revpbe-n-kjpaw_psl.0.3.0.UPF 
    O   15.99940  O.revpbe-n-kjpaw_psl.0.1.UPF 
ATOMIC_POSITIONS (crystal)
C       -0.002399060  -0.007531890  -0.006293797
C        0.243014302  -0.013971396  -0.014712933
C        0.494867170  -0.007531890  -0.006293797
C        0.748669894  -0.002660212   0.012249543
C       -0.001500385   0.242699585  -0.004781372
C        0.080825260   0.158852122  -0.009443776
C        0.248058189   0.238665199  -0.013449606
C        0.324602790   0.149205580  -0.015926778
C        0.490607010   0.238665199  -0.013449606
C        0.578026862   0.158852122  -0.009443776
C        0.744199970   0.242699585  -0.004781372
C        0.830442050   0.160884100   0.000258424
C       -0.004926924   0.490146153  -0.005471275
C        0.084576597   0.408232179  -0.004931996
C        0.258168031   0.488937844  -0.002670585
C        0.340218174   0.400788500  -0.008822557
C        0.560570325   0.400788500  -0.008822557
C        0.730769813   0.488937844  -0.002670585
C        0.823655581   0.408232179  -0.004931996
C       -0.007180347   0.738134618  -0.008379760
C        0.077566709   0.655133419  -0.010143348
C        0.245314966   0.738134618  -0.008379760
C        0.331604323   0.657045143   0.004048193
C        0.489578925   0.753529124   0.023669090
Cl       0.587484984   0.674969971   0.086500481
C        0.763950200   0.753529124   0.023669090
C        0.825440819   0.657045143   0.004048193
C        0.076104017   0.904424709  -0.010740288
C        0.328320691   0.904424709  -0.010740288
C        0.580680947   0.914632645   0.011447429
C        0.833951697   0.914632645   0.011447429
O        0.757908958   1.015817914   0.207994459
O        0.703494127   0.906988253   0.266616143
K_POINTS automatic 
  20 20 1   0 0 0 

