 &CONTROL
                 calculation = 'relax' ,
                      outdir = './tmp/' ,
                  pseudo_dir = '/home/deleted/pseudo_psl' ,
                      prefix = 'GI_op' ,
                   verbosity = 'high' ,
               etot_conv_thr = 1.0D-5 ,
               forc_conv_thr = 4.0D-4 ,
                       nstep = 1000 ,
                    dipfield = .true. ,
 /
 &SYSTEM
                       ibrav = 4,
                           A = 9.88 ,
                           C = 15 ,
                         nat = 34,
                        ntyp = 4,
                     ecutwfc = 40.424239707 ,
                     ecutrho = 404.24239707 ,
                 occupations = 'smearing' ,
                     degauss = 0.01 ,
				   input_dft = 'vdW-DF' ,
 /
 &ELECTRONS
            electron_maxstep = 50001,
                    conv_thr = 1.0D-6 ,
                 mixing_mode = 'local-TF' ,
                 mixing_beta = 0.5 ,
 /
 &IONS
                ion_dynamics = 'bfgs' ,
 /
ATOMIC_SPECIES
    C   12.01100  C.revpbe-n-kjpaw_psl.0.1.UPF 
    I  126.90400  I.revpbe-n-kjpaw_psl.0.2.UPF 
    O   15.99940  O.revpbe-n-kjpaw_psl.0.1.UPF 
    H   1.008000  H.revpbe-kjpaw_psl.0.1.UPF
ATOMIC_POSITIONS crystal 
C       -0.002457508  -0.002031880  -0.001563975
C        0.243795206  -0.012409590  -0.001226025
C        0.500425628  -0.002031880  -0.001563975
C        0.756642235   0.013284470  -0.002076055
C        0.006662324   0.254653808  -0.001448947
C        0.083934451   0.165204210  -0.001454316
C        0.250900661   0.241867060  -0.001454396
C        0.324902387   0.149804776  -0.001347380
C        0.490966399   0.241867060  -0.001454396
C        0.581269758   0.165204210  -0.001454316
C        0.747991484   0.254653808  -0.001448947
C        0.837771546   0.175543094  -0.001617577
C        0.000032908   0.500065818  -0.001481555
C        0.095151426   0.419410879  -0.001439524
C        0.272528931   0.497133306  -0.001609171
C        0.350758368   0.403889768  -0.001608632
C        0.553131400   0.403889768  -0.001608632
C        0.724604375   0.497133306  -0.001609171
C        0.824259451   0.419410879  -0.001439524
C       -0.013669090   0.743706486  -0.001587732
C        0.081560410   0.663120819  -0.001584301
C        0.257375575   0.743706486  -0.001587732
C        0.356743556   0.665848708  -0.001746314
C        0.528354540   0.759188251  -0.001544771
I        0.612835774   0.725671547   0.222597565
C        0.730833711   0.759188251  -0.001544771
C        0.809105152   0.665848708  -0.001746314
C        0.074822527   0.908506183  -0.001365702
C        0.333683655   0.908506183  -0.001365702
C        0.590722055   0.921371788  -0.001934460
C        0.830649733   0.921371788  -0.001934460
O        0.617152627   0.734305254   0.380217749
O        0.554015975   0.608031950   0.423993177
H        0.675027020   0.626447243   0.402105463
K_POINTS automatic 
  4 4 1   0 0 0 

