 &CONTROL
                 calculation = 'scf' ,
                      outdir = './tmp/' ,
                  pseudo_dir = '/home/deleted/pseudo_psl' ,
                      prefix = 'GI_op' ,
                   verbosity = 'high' ,
               etot_conv_thr = 1.0D-5 ,
               forc_conv_thr = 4.0D-4 ,
                       nstep = 1000 ,
                    dipfield = .true. ,
 /
 &SYSTEM
                       ibrav = 4,
                           A = 9.88 ,
                           C = 15 ,
                         nat = 34,
                        ntyp = 4,
                     ecutwfc = 40.424239707 ,
                     ecutrho = 404.24239707 ,
                 occupations = 'smearing' ,
                     degauss = 0.01 ,
				   input_dft = 'vdW-DF' ,
 /
 &ELECTRONS
            electron_maxstep = 50001,
                    conv_thr = 1.0D-6 ,
                 mixing_mode = 'local-TF' ,
                 mixing_beta = 0.5 ,
 /
ATOMIC_SPECIES
    C   12.01100  C.revpbe-n-kjpaw_psl.0.1.UPF 
    I  126.90400  I.revpbe-n-kjpaw_psl.0.2.UPF 
    O   15.99940  O.revpbe-n-kjpaw_psl.0.1.UPF 
    H   1.008000  H.revpbe-kjpaw_psl.0.1.UPF
ATOMIC_POSITIONS crystal 
C       -0.002269847  -0.001977238  -0.000439455
C        0.243998308  -0.012293464   0.000232557
C        0.500590779  -0.001961731  -0.000147970
C        0.756917772   0.013549347  -0.001186844
C        0.006968108   0.254765144  -0.000467146
C        0.084204211   0.165371013  -0.000328034
C        0.251136635   0.242007153   0.000014750
C        0.325046581   0.149804891   0.000236002
C        0.491150404   0.242009156   0.000194853
C        0.581454447   0.165373924  -0.000020356
C        0.748085746   0.254773143  -0.000250364
C        0.837977022   0.175664101  -0.000737643
C        0.000257960   0.500221741  -0.000135364
C        0.095489799   0.419503040  -0.000218275
C        0.272650814   0.497185773  -0.000222133
C        0.351066867   0.403988224  -0.000044863
C        0.553183890   0.403989542   0.000087805
C        0.724797537   0.497188577   0.000012251
C        0.824299697   0.419505414  -0.000032075
C       -0.013683136   0.743705903  -0.000173697
C        0.081637926   0.662982927  -0.000169891
C        0.257674724   0.743698613  -0.000199850
C        0.356829300   0.665930797  -0.000381229
C        0.528734263   0.759336632  -0.000090679
I        0.609304550   0.732630054   0.216784235
C        0.730941903   0.759363971  -0.000164170
C        0.809359009   0.665961349  -0.000230876
C        0.074907346   0.908555961  -0.000050119
C        0.333941980   0.908554279   0.000114695
C        0.590987382   0.921554458  -0.000722005
C        0.830851923   0.921541902  -0.000889079
O        0.613019258   0.750413137   0.358770628
O        0.565125246   0.602060094   0.402505352
H        0.665846247   0.606404688   0.410414173
K_POINTS automatic 
  16 16 1   0 0 0 

