 &CONTROL
                 calculation = 'scf' ,
                      outdir = './tmp_subs/' ,
                  pseudo_dir = '/home/deleted/pseudo_psl' ,
                      prefix = 'GCl_ip-subs' ,
                   verbosity = 'high' ,
               etot_conv_thr = 1.0D-5 ,
               forc_conv_thr = 4.0D-4 ,
                       nstep = 1000 ,
                    dipfield = .true. ,
 /
 &SYSTEM
                       ibrav = 4,
                           A = 9.88 ,
                           C = 15 ,
                         nat = 31,
                        ntyp = 2,
                     ecutwfc = 40.424239707 ,
                     ecutrho = 404.24239707 ,
                 occupations = 'smearing' ,
                     degauss = 0.01 ,
				   input_dft = 'vdW-DF' ,
    nspin = 2 ,
    starting_magnetization(1) = 0.5,
    starting_magnetization(2) = 0.5,
 /
 &ELECTRONS
            electron_maxstep = 50001,
                    conv_thr = 1.0D-6 ,
                 mixing_mode = 'local-TF' ,
                 mixing_beta = 0.5 ,
 /
ATOMIC_SPECIES
    C   12.01100  C.revpbe-n-kjpaw_psl.0.1.UPF 
   Cl   35.45200  Cl.revpbe-n-kjpaw_psl.0.3.0.UPF 
ATOMIC_POSITIONS (crystal)
C       -0.001440135   0.003363163   0.004606850
C        0.246236612   0.000283338   0.016816469
C        0.496981584   0.003341237   0.004774890
C        0.749177216   0.006207700  -0.015729124
C       -0.001994237   0.252929085   0.005425081
C        0.080565333   0.169014955   0.010359263
C        0.245856017   0.249172341   0.020642402
C        0.328590345   0.164971809   0.022772926
C        0.495524285   0.249178882   0.020796288
C        0.580646415   0.169000173   0.010504459
C        0.747104491   0.252954577   0.005503114
C        0.831269228   0.170387809  -0.001803762
C       -0.003228625   0.501364599   0.007619073
C        0.081997583   0.418736564   0.007711699
C        0.251956677   0.500814211   0.008739054
C        0.328801687   0.413279929   0.021968422
C        0.576666714   0.413308285   0.022095868
C        0.741033749   0.500865195   0.008770051
C        0.828911777   0.418774145   0.007781627
C       -0.003565216   0.751178830   0.009319175
C        0.079966827   0.667692879   0.012264443
C        0.246984489   0.751160385   0.009434695
C        0.331598915   0.668209341  -0.002498706
C        0.488322566   0.762610701  -0.026904480
Cl       0.589562191   0.686913235  -0.091653862
C        0.766483234   0.762628359  -0.026985834
C        0.828866101   0.668251782  -0.002608534
C        0.079400417   0.917703392   0.010817748
C        0.330487283   0.917677475   0.010943674
C        0.581236229   0.924417464  -0.015016978
C        0.835364398   0.924445693  -0.015140101
K_POINTS automatic 
  16 16 1   0 0 0 

