 &CONTROL
                 calculation = 'scf' ,
                      outdir = './tmp/' ,
                  pseudo_dir = '/home/deleted/pseudo_psl' ,
                      prefix = 'GF_ip' ,
                   verbosity = 'high' ,
               etot_conv_thr = 1.0D-5 ,
               forc_conv_thr = 4.0D-4 ,
                       nstep = 1000 ,
                    dipfield = .true. ,
 /
 &SYSTEM
                       ibrav = 4,
                           A = 9.88 ,
                           C = 15 ,
                         nat = 33,
                        ntyp = 3,
                     ecutwfc = 40.424239707 ,
                     ecutrho = 404.24239707 ,
                 occupations = 'smearing' ,
                     degauss = 0.01 ,
				   input_dft = 'vdW-DF' ,
 /
 &ELECTRONS
            electron_maxstep = 50001,
                    conv_thr = 1.0D-6 ,
                 mixing_mode = 'local-TF' ,
                 mixing_beta = 0.5 ,
 /
ATOMIC_SPECIES
    C   12.01100  C.revpbe-n-kjpaw_psl.0.1.UPF 
    F   18.99800  F.revpbe-n-kjpaw_psl.0.1.UPF 
    O   15.99940  O.revpbe-n-kjpaw_psl.0.1.UPF 
ATOMIC_POSITIONS crystal 
C       -0.003621496  -0.011195641   0.002520951
C        0.240536236  -0.018927528   0.004508859
C        0.492425855  -0.011195641   0.002520951
C        0.747093334  -0.005813333  -0.001351122
C       -0.002632211   0.239413730   0.001834371
C        0.079284529   0.154956977   0.003064252
C        0.246105408   0.233628795   0.003996638
C        0.321955063   0.143910126   0.004715327
C        0.487523387   0.233628795   0.003996638
C        0.575672447   0.154956977   0.003064252
C        0.742045940   0.239413730   0.001834371
C        0.829095346   0.158190693   0.000739089
C       -0.006931775   0.486136452   0.001867658
C        0.083601618   0.404646608   0.001795934
C        0.257808297   0.484117050   0.001531648
C        0.339688874   0.395554322   0.002776241
C        0.555865446   0.395554322   0.002776241
C        0.726308754   0.484117050   0.001531648
C        0.821044989   0.404646608   0.001795934
C       -0.009685841   0.733868456   0.002725484
C        0.075586122   0.651172245   0.002813773
C        0.243554296   0.733868456   0.002725484
C        0.331450216   0.652067774   0.000531820
C        0.490464906   0.751304033  -0.001682569
F        0.583822739   0.667645480  -0.016083636
C        0.760839126   0.751304033  -0.001682569
C        0.820617557   0.652067774   0.000531820
C        0.073887477   0.899895004   0.003605008
C        0.326007525   0.899895004   0.003605008
C        0.580663881   0.911019760  -0.001006347
C        0.830355877   0.911019760  -0.001006347
O        0.661661663   0.692899403   0.179701595
O        0.531237740   0.692899403   0.179701595
K_POINTS automatic 
  16 16 1   0 0 0 

