 &CONTROL
                 calculation = 'relax' ,
                      outdir = './tmp/' ,
                  pseudo_dir = '/home/deleted/pseudo_psl' ,
                      prefix = 'GF_ip' ,
                   verbosity = 'high' ,
               etot_conv_thr = 1.0D-5 ,
               forc_conv_thr = 4.0D-4 ,
                       nstep = 1000 ,
                    dipfield = .true. ,
 /
 &SYSTEM
                       ibrav = 4,
                           A = 9.88 ,
                           C = 15 ,
                         nat = 33,
                        ntyp = 3,
                     ecutwfc = 40.424239707 ,
                     ecutrho = 404.24239707 ,
                 occupations = 'smearing' ,
                     degauss = 0.01 ,
				   input_dft = 'vdW-DF' ,
 /
 &ELECTRONS
            electron_maxstep = 50001,
                    conv_thr = 1.0D-6 ,
                 mixing_mode = 'local-TF' ,
                 mixing_beta = 0.5 ,
 /
 &IONS
                ion_dynamics = 'bfgs' ,
 /
ATOMIC_SPECIES
    C   12.01100  C.revpbe-n-kjpaw_psl.0.1.UPF 
    F   18.99800  F.revpbe-n-kjpaw_psl.0.1.UPF 
    O   15.99940  O.revpbe-n-kjpaw_psl.0.1.UPF 
ATOMIC_POSITIONS crystal 
C        0.003016645   0.001560741   0.000000000
C        0.246377263  -0.007245474   0.000000000
C        0.498544096   0.001560741   0.000000000
C        0.753643710   0.007287420   0.000000000
C        0.003847485   0.252209554   0.000000000
C        0.086008598   0.167687933   0.000000000
C        0.252778821   0.245821097   0.000000000
C        0.327731520   0.155463040   0.000000000
C        0.493042276   0.245821097   0.000000000
C        0.581679334   0.167687933   0.000000000
C        0.748362068   0.252209554   0.000000000
C        0.835810397   0.171620794   0.000000000
C       -0.000787190   0.498425621   0.000000000
C        0.090560141   0.417448753   0.000000000
C        0.265058474   0.496668707   0.000000000
C        0.348994416   0.407853920   0.000000000
C        0.558859503   0.407853920   0.000000000
C        0.731610233   0.496668707   0.000000000
C        0.826888611   0.417448753   0.000000000
C       -0.003579634   0.745843606   0.000000000
C        0.081754243   0.663508487   0.000000000
C        0.249423239   0.745843606   0.000000000
C        0.337407848   0.664136137   0.000000000
C        0.496713130   0.764520734   0.000000000
F        0.589083917   0.678167835   0.000000000
C        0.767807604   0.764520734   0.000000000
C        0.826728288   0.664136137   0.000000000
C        0.079923190   0.911988053   0.000000000
C        0.332064861   0.911988053   0.000000000
C        0.587362933   0.923980240   0.000000000
C        0.836617306   0.923980240   0.000000000
O        0.561234818   0.500000000   0.2
O        0.438765182   0.500000000   0.2
K_POINTS automatic 
  4 4 1   0 0 0 

