 &CONTROL
                 calculation = 'scf' ,
                      outdir = './tmp/' ,
                  pseudo_dir = '/home/deleted/pseudo_psl' ,
                      prefix = 'GCl_op' ,
                   verbosity = 'high' ,
               etot_conv_thr = 1.0D-5 ,
               forc_conv_thr = 4.0D-4 ,
                       nstep = 1000 ,
                    dipfield = .true. ,
 /
 &SYSTEM
                       ibrav = 4,
                           A = 9.88 ,
                           C = 15 ,
                         nat = 34,
                        ntyp = 4,
                     ecutwfc = 40.424239707 ,
                     ecutrho = 404.24239707 ,
                 occupations = 'smearing' ,
                     degauss = 0.01 ,
				   input_dft = 'vdW-DF' ,
    nspin = 2 ,
    starting_magnetization(1) = 0.5,
    starting_magnetization(2) = 0.5,
    starting_magnetization(3) = 0.5,
 /
 &ELECTRONS
            electron_maxstep = 50001,
                    conv_thr = 1.0D-6 ,
                 mixing_mode = 'local-TF' ,
                 mixing_beta = 0.5 ,
 /
ATOMIC_SPECIES
    C   12.01100  C.revpbe-n-kjpaw_psl.0.1.UPF 
   Cl   35.45200  Cl.revpbe-n-kjpaw_psl.0.3.0.UPF 
    O   15.99940  O.revpbe-n-kjpaw_psl.0.1.UPF 
    H   1.008000  H.revpbe-kjpaw_psl.0.1.UPF
ATOMIC_POSITIONS (crystal)
C        0.015904456  -0.003868602  -0.005474476
C        0.261965873  -0.009668439  -0.012357666
C        0.513604619  -0.004037346  -0.003641062
C        0.767331309   0.000878691   0.012964276
C        0.017577560   0.246816293  -0.003951565
C        0.099448561   0.162530196  -0.008237412
C        0.266737155   0.242901009  -0.012621247
C        0.343484304   0.153332910  -0.014110409
C        0.509684019   0.242545270  -0.012099691
C        0.596796155   0.162332488  -0.007529071
C        0.762982093   0.246824748  -0.003232662
C        0.849096201   0.164481296   0.001839220
C        0.014202741   0.494584293  -0.004960226
C        0.103703923   0.412323379  -0.004476092
C        0.277181760   0.493415158  -0.002295398
C        0.357912031   0.404828590  -0.008943605
C        0.580289233   0.404668458  -0.009074023
C        0.749805495   0.493349675  -0.003891765
C        0.842353198   0.412230629  -0.004513687
C        0.011246488   0.742369700  -0.007835836
C        0.096640768   0.659356890  -0.009073424
C        0.265043548   0.742433450  -0.006843500
C        0.351546859   0.661637918   0.005557876
C        0.509055652   0.756156121   0.028060385
Cl       0.600611076   0.674372982   0.093738480
C        0.775055755   0.754178071   0.017370852
C        0.843100165   0.662018415   0.001503492
C        0.094774571   0.908418425  -0.009498244
C        0.347276242   0.908537434  -0.008217750
C        0.598875579   0.917248316   0.014090027
C        0.851300326   0.916621146   0.009591387
O        0.414030940   0.605392512   0.196035919
O        0.346589252   0.435868671   0.203642406
H        0.380807134   0.427467349   0.263538862
K_POINTS automatic 
  16 16 1   0 0 0 

