&CONTROL
	calculation = 'bands' ,
	outdir = './tmp/' ,
	pseudo_dir = '/home/deleted/pseudo_psl' ,
	prefix = 'GBr_op' ,
	verbosity = 'high' ,
	etot_conv_thr = 1.0D-5 ,
	forc_conv_thr = 4.0D-4 ,
	nstep = 1000 ,
	dipfield = .true. ,
/
&SYSTEM
	ibrav = 4,
	A = 9.88 ,
	C = 15 ,
	nat = 31,
	ntyp = 2,
	ecutwfc = 40.424239707 ,
	ecutrho = 404.24239707 ,
	occupations = 'tetrahedra' ,
	degauss = 0.01 ,
    input_dft = 'vdW-DF' ,
/
&ELECTRONS
	electron_maxstep = 50001,
	conv_thr = 1.0D-6 ,
	mixing_mode = 'local-TF' ,
	mixing_beta = 0.5 ,
/
ATOMIC_SPECIES
	C	12.01100	C.revpbe-n-kjpaw_psl.0.1.UPF 
	Br	79.90350	Br.revpbe-n-kjpaw_psl.0.2.UPF  
ATOMIC_POSITIONS crystal 
C        0.001497951   0.001786679   0.009550430
C        0.242210376  -0.015579249   0.047954004
C        0.500288728   0.001786679   0.009550430
C        0.750859885   0.001719770   0.000027692
C        0.001534569   0.251867924  -0.003503110
C        0.087346122   0.169049713  -0.000693164
C        0.253138124   0.264754248  -0.009404217
Br       0.303133485   0.106266971   0.158597301
C        0.511616124   0.264754248  -0.009404217
C        0.581703590   0.169049713  -0.000693164
C        0.750333355   0.251867924  -0.003503110
C        0.834182008   0.168364016  -0.001074208
C        0.001348123   0.502696246  -0.005139516
C        0.083151997   0.418831884  -0.006425947
C        0.249535096   0.506186839  -0.008235233
C        0.319077324   0.414790464  -0.010215492
C        0.595713139   0.414790464  -0.010215492
C        0.756651743   0.506186839  -0.008235233
C        0.835679886   0.418831884  -0.006425947
C        0.002208358   0.752927060   0.001529026
C        0.084176415   0.668352831  -0.000418908
C        0.250718702   0.752927060   0.001529026
C        0.333761914   0.671279515  -0.005206691
C        0.501370518   0.748452740  -0.002475201
C        0.582047214   0.664094429  -0.006841393
C        0.747082222   0.748452740  -0.002475201
C        0.837517600   0.671279515  -0.005206691
C        0.084049901   0.917527335   0.019672245
C        0.333477433   0.917527335   0.019672245
C        0.583956615   0.917921427   0.002188201
C        0.833964811   0.917921427   0.002188201
K_POINTS crystal_b 
4
0.0000000000    0.0000000000    0.0000000000 17
0.0000000000    0.5000000000    0.0000000000 10
0.3333333333    0.3333333333    0.0000000000 20
0.0000000000    0.0000000000    0.0000000000 1
