 &CONTROL
                 calculation = 'scf' ,
                      outdir = './tmp_subs/' ,
                  pseudo_dir = '/home/deleted/pseudo_psl' ,
                      prefix = 'GI_op-subs' ,
                   verbosity = 'high' ,
               etot_conv_thr = 1.0D-5 ,
               forc_conv_thr = 4.0D-4 ,
                       nstep = 1000 ,
                    dipfield = .true. ,
 /
 &SYSTEM
                       ibrav = 4,
                           A = 9.88 ,
                           C = 15 ,
                         nat = 31,
                        ntyp = 2,
                     ecutwfc = 40.424239707 ,
                     ecutrho = 404.24239707 ,
                 occupations = 'smearing' ,
                     degauss = 0.01 ,
				   input_dft = 'vdW-DF' ,
    nspin = 2 ,
    starting_magnetization(1) = 0.5,
    starting_magnetization(2) = 0.5,
 /
 &ELECTRONS
            electron_maxstep = 50001,
                    conv_thr = 1.0D-6 ,
                 mixing_mode = 'local-TF' ,
                 mixing_beta = 0.5 ,
 /
ATOMIC_SPECIES
    C   12.01100  C.revpbe-n-kjpaw_psl.0.1.UPF 
    I  126.90400  I.revpbe-n-kjpaw_psl.0.2.UPF 
ATOMIC_POSITIONS (crystal)
C        0.012840061   0.028328956  -0.002501470
C        0.259003317   0.018006529  -0.003374879
C        0.515489040   0.028328946  -0.002501470
C        0.771592668   0.043185240  -0.002319991
C        0.021614165   0.284833263  -0.002045958
C        0.099170898   0.195527148  -0.002062979
C        0.266174231   0.272409952  -0.002266385
C        0.340285687   0.180571281  -0.002604046
C        0.506235826   0.272409962  -0.002266385
C        0.596356337   0.195527132  -0.002062979
C        0.763219211   0.284833275  -0.002045958
C        0.852947141   0.205894186  -0.001934831
C        0.015040994   0.530081866  -0.003128583
C        0.110090879   0.449719428  -0.002819109
C        0.287661425   0.527707587  -0.003515767
C        0.366095101   0.434686884  -0.002688400
C        0.568591822   0.434686785  -0.002688400
C        0.740046219   0.527707517  -0.003515767
C        0.839628663   0.449719429  -0.002819109
C        0.001770216   0.774054680  -0.003850511
C        0.096832168   0.693664226  -0.003777491
C        0.272284599   0.774054670  -0.003850511
C        0.371588655   0.696149973  -0.004026526
C        0.543174803   0.789255814  -0.002853239
I        0.599210688   0.698416459   0.212386558
C        0.746081147   0.789255831  -0.002853239
C        0.824561457   0.696149962  -0.004026526
C        0.090322503   0.939003584  -0.003325082
C        0.348681198   0.939003582  -0.003325082
C        0.605749497   0.951634021  -0.002573465
C        0.845884696   0.951634019  -0.002573465
K_POINTS automatic 
  16 16 1   0 0 0 

