 &CONTROL
                 calculation = 'bands' ,
                      outdir = './tmp/' ,
                  pseudo_dir = '/home/deleted/pseudo_psl' ,
                      prefix = 'GF_ip' ,
                   verbosity = 'high' ,
               etot_conv_thr = 1.0D-5 ,
               forc_conv_thr = 4.0D-4 ,
                       nstep = 1000 ,
                    dipfield = .true. ,
 /
 &SYSTEM
                       ibrav = 4,
                           A = 9.88 ,
                           C = 15 ,
                         nat = 34,
                        ntyp = 4,
                     ecutwfc = 40.424239707 ,
                     ecutrho = 404.24239707 ,
                 occupations = 'tetrahedra' ,
                     degauss = 0.01 ,
				   input_dft = 'vdW-DF' ,
 /
 &ELECTRONS
            electron_maxstep = 50001,
                    conv_thr = 1.0D-6 ,
                 mixing_mode = 'local-TF' ,
                 mixing_beta = 0.5 ,
 /
ATOMIC_SPECIES
    C   12.01100  C.revpbe-n-kjpaw_psl.0.1.UPF 
    F   18.99800  F.revpbe-n-kjpaw_psl.0.1.UPF 
    O   15.99940  O.revpbe-n-kjpaw_psl.0.1.UPF 
    H   1.008000  H.revpbe-kjpaw_psl.0.1.UPF
ATOMIC_POSITIONS crystal 
C       -0.001188386   0.006909745   0.007133394
C        0.247304448   0.005190690   0.010318516
C        0.497341447   0.006989202   0.011791171
C        0.748052443   0.007656390   0.009494547
C       -0.000809184   0.257458217   0.011747304
C        0.080597447   0.172586984   0.013596797
C        0.246418379   0.253239849   0.015296747
C        0.329626426   0.169870284   0.011027072
C        0.496257106   0.253455197   0.006530778
C        0.581441550   0.172686115   0.004838095
C        0.747822911   0.257377982   0.006938084
C        0.831560750   0.173644681   0.008929289
C       -0.001798319   0.506457769   0.010621553
C        0.083535534   0.423696534   0.016901871
C        0.252778762   0.506596133   0.027718631
C        0.328552909   0.416548994   0.021236332
C        0.577719025   0.417060785   0.005827798
C        0.743105997   0.506137818  -0.003259821
C        0.829936955   0.423565629   0.004055770
C       -0.001836993   0.756440388   0.004156138
C        0.081768346   0.672897156   0.011000274
C        0.249067096   0.756518205   0.017970455
C        0.334336939   0.675930897   0.035177764
C        0.494932388   0.771752521   0.057739714
F        0.631237135   0.708527238  -0.079231189
C        0.766401601   0.769337569  -0.030252462
C        0.831624718   0.675121432  -0.010532655
C        0.080909256   0.922489858   0.006924816
C        0.330968646   0.922621296   0.013629239
C        0.581510525   0.926902207   0.024386970
C        0.833795492   0.926690562  -0.004242847
O        0.576174472   0.732359981   0.115787507
O        0.491895247   0.492373342   0.021183573
H        0.532736522   0.619535839   0.118210411
K_POINTS crystal_b 
4
0.0000000000    0.0000000000    0.0000000000 17
0.0000000000    0.5000000000    0.0000000000 10
0.3333333333    0.3333333333    0.0000000000 20
0.0000000000    0.0000000000    0.0000000000 1

