 &CONTROL
                 calculation = 'bands' ,
                      outdir = './tmp/' ,
                  pseudo_dir = '/home/deleted/pseudo_psl' ,
                      prefix = 'GCl_op' ,
                   verbosity = 'high' ,
               etot_conv_thr = 1.0D-5 ,
               forc_conv_thr = 4.0D-4 ,
                       nstep = 1000 ,
                    dipfield = .true. ,
 /
 &SYSTEM
                       ibrav = 4,
                           A = 9.88 ,
                           C = 15 ,
                         nat = 32,
                        ntyp = 3,
                     ecutwfc = 40.424239707 ,
                     ecutrho = 404.24239707 ,
                 occupations = 'tetrahedra' ,
                     degauss = 0.01 ,
				   input_dft = 'vdW-DF' ,
 /
 &ELECTRONS
            electron_maxstep = 50001,
                    conv_thr = 1.0D-6 ,
                 mixing_mode = 'local-TF' ,
                 mixing_beta = 0.5 ,
 /
ATOMIC_SPECIES
    C   12.01100  C.revpbe-n-kjpaw_psl.0.1.UPF 
   Cl   35.45200  Cl.revpbe-n-kjpaw_psl.0.3.0.UPF 
    O   15.99940  O.revpbe-n-kjpaw_psl.0.1.UPF 
ATOMIC_POSITIONS crystal 
C        0.000437409  -0.001060552  -0.002734948
C        0.246137838  -0.007724325  -0.007114710
C        0.498502040  -0.001060552  -0.002734948
C        0.752206324   0.004412648   0.008238472
C        0.002278618   0.250120832  -0.003063960
C        0.084145463   0.165422637  -0.005873549
C        0.251596388   0.245311753  -0.008577352
C        0.327733800   0.155467600  -0.009694296
C        0.493715365   0.245311753  -0.008577352
C        0.581277173   0.165422637  -0.005873549
C        0.747842214   0.250120832  -0.003063960
C        0.834529783   0.169059567   0.000356794
C       -0.001361977   0.497276047  -0.002233638
C        0.088515145   0.415569358  -0.002527431
C        0.262157253   0.496687442  -0.000433559
C        0.344541202   0.407555016  -0.005667827
C        0.563013813   0.407555016  -0.005667827
C        0.734530189   0.496687442  -0.000433559
C        0.827054212   0.415569358  -0.002527431
C       -0.004659947   0.744492892  -0.001972359
C        0.081085994   0.662171989  -0.004100388
C        0.249152839   0.744492892  -0.001972359
C        0.335447373   0.663568951   0.006567336
C        0.498941818   0.757788355   0.019451770
Cl       0.588624473   0.677248949   0.087183128
C        0.758846539   0.757788355   0.019451770
C        0.828121576   0.663568951   0.006567336
C        0.079258290   0.911047231  -0.004003989
C        0.331788941   0.911047231  -0.004003989
C        0.585632698   0.920632671   0.008644135
C        0.834999972   0.920632671   0.008644135
O        0.619026660   0.738053322   0.183982191
K_POINTS crystal_b 
4
0.0000000000    0.0000000000    0.0000000000 17
0.0000000000    0.5000000000    0.0000000000 10
0.3333333333    0.3333333333    0.0000000000 20
0.0000000000    0.0000000000    0.0000000000 1

