 &CONTROL
                 calculation = 'nscf' ,
                      outdir = './tmp/' ,
                  pseudo_dir = '/home/deleted/pseudo_psl' ,
                      prefix = 'GCl_ip' ,
                   verbosity = 'high' ,
               etot_conv_thr = 1.0D-5 ,
               forc_conv_thr = 4.0D-4 ,
                       nstep = 1000 ,
                    dipfield = .true. ,
 /
 &SYSTEM
                       ibrav = 4,
                           A = 9.88 ,
                           C = 15 ,
                         nat = 32,
                        ntyp = 3,
                     ecutwfc = 40.424239707 ,
                     ecutrho = 404.24239707 ,
                 occupations = 'tetrahedra' ,
                     degauss = 0.01 ,
				   input_dft = 'vdW-DF' ,
 /
 &ELECTRONS
            electron_maxstep = 50001,
                    conv_thr = 1.0D-6 ,
                 mixing_mode = 'local-TF' ,
                 mixing_beta = 0.5 ,
 /
ATOMIC_SPECIES
    C   12.01100  C.revpbe-n-kjpaw_psl.0.1.UPF 
   Cl   35.45200  Cl.revpbe-n-kjpaw_psl.0.3.0.UPF 
    O   15.99940  O.revpbe-n-kjpaw_psl.0.1.UPF 
ATOMIC_POSITIONS crystal 
C        0.001209015   0.000819740   0.004288284
C        0.248841474  -0.002317052   0.016561800
C        0.499610725   0.000819740   0.004288284
C        0.751803258   0.003606515  -0.016193575
C        0.000627382   0.250400105   0.005262004
C        0.083191045   0.166479156   0.010092129
C        0.248445226   0.246572356   0.020656481
C        0.331176491   0.162352982   0.022609950
C        0.498127130   0.246572356   0.020656481
C        0.583288110   0.166479156   0.010092129
C        0.749772723   0.250400105   0.005262004
C        0.833904010   0.167808021  -0.002183979
C       -0.000575552   0.498848896   0.007998554
C        0.084626968   0.416212060   0.007976683
C        0.254602846   0.498255527   0.009170484
C        0.331410407   0.410673684   0.022364391
C        0.579263276   0.410673684   0.022364391
C        0.743652681   0.498255527   0.009170484
C        0.831585091   0.416212060   0.007976683
C       -0.001009810   0.748591535   0.009529761
C        0.082588476   0.665176955   0.012610352
C        0.249601345   0.748591535   0.009529761
C        0.334217371   0.665620690  -0.002248854
C        0.490820849   0.759939922  -0.026947564
Cl       0.591865034   0.683730070  -0.091413366
C        0.769119071   0.759939922  -0.026947564
C        0.831403318   0.665620690  -0.002248854
C        0.081996261   0.915116707   0.010663697
C        0.333120447   0.915116707   0.010663697
C        0.583829003   0.921821960  -0.015395677
C        0.837992955   0.921821960  -0.015395677
O        0.493226702   0.486453405   0.039186625
K_POINTS automatic 
  20 20 1   0 0 0 

