 &CONTROL
                 calculation = 'relax' ,
                      outdir = './tmp/' ,
                  pseudo_dir = '/home/deleted/pseudo_psl' ,
                      prefix = 'GBr_ip' ,
                   verbosity = 'high' ,
               etot_conv_thr = 1.0D-5 ,
               forc_conv_thr = 4.0D-4 ,
                       nstep = 1000 ,
                    dipfield = .true. ,
 /
 &SYSTEM
                       ibrav = 4,
                           A = 9.88 ,
                           C = 15 ,
                         nat = 34,
                        ntyp = 4,
                     ecutwfc = 40.424239707 ,
                     ecutrho = 404.24239707 ,
                 occupations = 'smearing' ,
                     degauss = 0.01 ,
				   input_dft = 'vdW-DF' ,
    nspin = 2 ,
    starting_magnetization(1) = 0.5,
    starting_magnetization(2) = 0.5,
    starting_magnetization(3) = 0.5,
	starting_magnetization(4) = 0.5,
 /
 &ELECTRONS
            electron_maxstep = 50001,
                    conv_thr = 1.0D-6 ,
                 mixing_mode = 'local-TF' ,
                 mixing_beta = 0.5 ,
 /
 &IONS
                ion_dynamics = 'bfgs' ,
 /
ATOMIC_SPECIES
    C   12.01100  C.revpbe-n-kjpaw_psl.0.1.UPF 
   Br   79.90350  Br.revpbe-n-kjpaw_psl.0.2.UPF 
    O   15.99940  O.revpbe-n-kjpaw_psl.0.1.UPF 
    H   1.008000  H.revpbe-kjpaw_psl.0.1.UPF
ATOMIC_POSITIONS (crystal)
C        0.002379241   0.003122627   0.001140109
C        0.254890674   0.009781347   0.005167311
C        0.500743387   0.003122627   0.001140109
C        0.748982994  -0.002034011  -0.006255556
C       -0.001462409   0.250084169   0.007028436
C        0.084201878   0.170185334   0.001539808
C        0.251831888   0.257129681  -0.006229131
C        0.337737831   0.175475663  -0.004733614
C        0.505297793   0.257129681  -0.006229131
C        0.585983455   0.170185334   0.001539808
C        0.751546578   0.250084169   0.007028436
C        0.831777970   0.163555941   0.004521250
C        0.001325262   0.502650524   0.018365400
C        0.079202490   0.416787272   0.012590677
C        0.242083052   0.501745846   0.000459810
C        0.318338795   0.420260241  -0.014491016
C        0.601921444   0.420260241  -0.014491016
C        0.759662794   0.501745846   0.000459810
C        0.837584780   0.416787272   0.012590677
C        0.007485239   0.756640340   0.012408969
C        0.085393862   0.670787725   0.018407767
C        0.249155102   0.756640340   0.012408969
C        0.327090562   0.671816801  -0.000082007
C        0.484553724   0.753256946  -0.016141836
Br       0.543301826   0.586603654  -0.040669919
C        0.768703222   0.753256946  -0.016141836
C        0.844726237   0.671816801  -0.000082007
C        0.088095465   0.923294945   0.007049432
C        0.335199479   0.923294945   0.007049432
C        0.581420061   0.916348301  -0.007704098
C        0.834928239   0.916348301  -0.007704098
O        0.724775056   0.822583746   0.205029528
O        0.597808691   0.822583746   0.205029528
H        0.661291874   0.713085567   0.274299302
K_POINTS automatic 
  4 4 1   0 0 0 

