&INPUTPP
	outdir = './tmp/'
	prefix = 'GBr_ip'
	filplot = 'GBr_chg'
	plot_num = 0,
	spin_component = 0
/
&PLOT
	nfile = 1
	filepp(1) = 'GBr_chg'
	weight(1) = 1.0,
	fileout = 'GBr_chg.xsf'
	iflag = 3
	output_format = 5
/
