 &BANDS
    prefix = 'MVG_tc' ,
    outdir = './tmp/' ,
    filband = 'MVG_tc-bands-up' ,
    plot_2d = .false. ,
    spin_component = 1 ,
    no_overlap = .true. ,
 /
