 &BANDS
    prefix = 'MVG_ip' ,
    outdir = './tmp/' ,
    filband = 'MVG_ip-dn-bands' ,
    plot_2d = .false. ,
    spin_component = 2 ,
    no_overlap = .true. ,
 /
