 &CONTROL
                 calculation = 'nscf' ,
                      outdir = './tmp/' ,
                  pseudo_dir = '/home/deleted/pseudo_psl' ,
                      prefix = 'GBr_op' ,
                   verbosity = 'high' ,
               etot_conv_thr = 1.0D-5 ,
               forc_conv_thr = 4.0D-4 ,
                       nstep = 1000 ,
                    dipfield = .true. ,
 /
 &SYSTEM
                       ibrav = 4,
                           A = 9.88 ,
                           C = 15 ,
                         nat = 32,
                        ntyp = 3,
                     ecutwfc = 40.424239707 ,
                     ecutrho = 404.24239707 ,
                 occupations = 'tetrahedra' ,
                     degauss = 0.01 ,
				   input_dft = 'vdW-DF' ,
    nspin = 2 ,
    starting_magnetization(1) = 0.5,
    starting_magnetization(2) = 0.5,
    starting_magnetization(3) = 0.5,
 /
 &ELECTRONS
            electron_maxstep = 50001,
                    conv_thr = 1.0D-6 ,
                 mixing_mode = 'local-TF' ,
                 mixing_beta = 0.5 ,
 /
ATOMIC_SPECIES
    C   12.01100  C.revpbe-n-kjpaw_psl.0.1.UPF 
   Br   79.90350  Br.revpbe-n-kjpaw_psl.0.2.UPF 
    O   15.99940  O.revpbe-n-kjpaw_psl.0.1.UPF 
ATOMIC_POSITIONS (crystal)
C       -0.000520097   0.001824751  -0.002695809
C        0.245780999  -0.008533236  -0.002392286
C        0.502362186   0.001798897  -0.002712157
C        0.758425854   0.017050202  -0.003067540
C        0.008535699   0.258512203  -0.002477169
C        0.085881179   0.169080604  -0.002417950
C        0.252853726   0.245814205  -0.002416292
C        0.326901617   0.153812542  -0.002304988
C        0.492886750   0.245762319  -0.002482399
C        0.583135572   0.169025402  -0.002478098
C        0.749874459   0.258482324  -0.002499891
C        0.839649414   0.179409665  -0.002567975
C        0.001884594   0.503859225  -0.002823606
C        0.097007479   0.423307303  -0.002706370
C        0.274642121   0.501228111  -0.003024096
C        0.352737299   0.407903767  -0.002775196
C        0.555078628   0.407858774  -0.002893285
C        0.726446110   0.501119727  -0.003083846
C        0.826174095   0.423339619  -0.002734404
C       -0.011630148   0.747680772  -0.002977487
C        0.083565221   0.667121364  -0.002985355
C        0.259274306   0.747579678  -0.003070370
C        0.358840141   0.669849449  -0.003379344
C        0.530506828   0.763049452  -0.003201527
Br       0.565749067   0.585934278   0.228931651
C        0.732723144   0.763143689  -0.003788290
C        0.810814059   0.669970812  -0.003353527
C        0.076849316   0.912421367  -0.002641063
C        0.335542356   0.912398282  -0.002654766
C        0.592632350   0.925264102  -0.003258974
C        0.832554055   0.925136546  -0.003280274
O        0.549166374   0.743507659   0.180332180
K_POINTS automatic 
  20 20 1   0 0 0 

