 &CONTROL
                 calculation = 'bands' ,
                      outdir = './tmp/' ,
                  pseudo_dir = '/home/deleted/pseudo_psl' ,
                      prefix = 'GF_ip' ,
                   verbosity = 'high' ,
               etot_conv_thr = 1.0D-5 ,
               forc_conv_thr = 4.0D-4 ,
                       nstep = 1000 ,
                    dipfield = .true. ,
 /
 &SYSTEM
                       ibrav = 4,
                           A = 9.88 ,
                           C = 15 ,
                         nat = 33,
                        ntyp = 3,
                     ecutwfc = 40.424239707 ,
                     ecutrho = 404.24239707 ,
                 occupations = 'tetrahedra' ,
                     degauss = 0.01 ,
				   input_dft = 'vdW-DF' ,
    nspin = 2 ,
    starting_magnetization(1) = 0.5,
    starting_magnetization(2) = 0.5,
    starting_magnetization(3) = 0.5,
 /
 &ELECTRONS
            electron_maxstep = 50001,
                    conv_thr = 1.0D-6 ,
                 mixing_mode = 'local-TF' ,
                 mixing_beta = 0.5 ,
 /
ATOMIC_SPECIES
    C   12.01100  C.revpbe-n-kjpaw_psl.0.1.UPF 
    F   18.99800  F.revpbe-n-kjpaw_psl.0.1.UPF 
    O   15.99940  O.revpbe-n-kjpaw_psl.0.1.UPF 
ATOMIC_POSITIONS (crystal)
C       -0.002889525  -0.004848851   0.003146103
C        0.241031602  -0.013145662   0.006184062
C        0.493242159  -0.004776421   0.002501900
C        0.748061206   0.001046615  -0.004885451
C       -0.001667234   0.245990193   0.001803702
C        0.080290335   0.161405122   0.003999701
C        0.247181835   0.239903500   0.005539202
C        0.322405462   0.149657524   0.006682702
C        0.487904130   0.239902236   0.005402822
C        0.576328665   0.161462053   0.003627761
C        0.742869932   0.245994002   0.001561609
C        0.830157296   0.165147096  -0.000579296
C       -0.006128162   0.492446611   0.002160708
C        0.084948657   0.411181082   0.002056344
C        0.259609300   0.490489736   0.001481847
C        0.342577662   0.402033864   0.003280610
C        0.554610431   0.402049863   0.003358869
C        0.726162566   0.490428663   0.001398104
C        0.821509207   0.411228367   0.001915154
C       -0.009310753   0.739849416   0.003582249
C        0.076381491   0.657443224   0.003844848
C        0.244473937   0.739898078   0.003213578
C        0.332736905   0.658198999  -0.000896341
C        0.491645850   0.757890982  -0.006170577
F        0.586647985   0.676959804  -0.030659647
C        0.761096842   0.757700705  -0.005951608
C        0.820721759   0.658201080  -0.000459168
C        0.074321086   0.905905246   0.004778874
C        0.326749035   0.905905605   0.004394650
C        0.581687707   0.917682670  -0.004206462
C        0.831008928   0.917499844  -0.003552565
O        0.567568634   0.705095184   0.173749522
O        0.432731728   0.647506908   0.207696194
K_POINTS automatic 
  20 20 1   0 0 0 

