 &CONTROL
                 calculation = 'nscf' ,
                      outdir = './tmp/' ,
                  pseudo_dir = '/home/deleted/pseudo_psl' ,
                      prefix = 'GF_op' ,
                   verbosity = 'high' ,
               etot_conv_thr = 1.0D-5 ,
               forc_conv_thr = 4.0D-4 ,
                       nstep = 1000 ,
                    dipfield = .true. ,
 /
 &SYSTEM
                       ibrav = 4,
                           A = 9.88 ,
                           C = 15 ,
                         nat = 32,
                        ntyp = 3,
                     ecutwfc = 40.424239707 ,
                     ecutrho = 404.24239707 ,
                 occupations = 'tetrahedra' ,
                     degauss = 0.01 ,
				   input_dft = 'vdW-DF' ,
    nspin = 2 ,
    starting_magnetization(1) = 0.5,
    starting_magnetization(2) = 0.5,
    starting_magnetization(3) = 0.5,
 /
 &ELECTRONS
            electron_maxstep = 50001,
                    conv_thr = 1.0D-6 ,
                 mixing_mode = 'local-TF' ,
                 mixing_beta = 0.5 ,
 /
ATOMIC_SPECIES
    C   12.01100  C.revpbe-n-kjpaw_psl.0.1.UPF 
    F   18.99800  F.revpbe-n-kjpaw_psl.0.1.UPF 
    O   15.99940  O.revpbe-n-kjpaw_psl.0.1.UPF 
ATOMIC_POSITIONS (crystal)
C        0.001406627   0.001193766   0.007533838
C        0.246084983  -0.007830035   0.006294459
C        0.499787139   0.001193766   0.007533838
C        0.754403450   0.008806901   0.010566578
C        0.004961198   0.253654823   0.007884132
C        0.085763392   0.167691159   0.006868442
C        0.252362484   0.245822656   0.006237352
C        0.327609602   0.155219207   0.005640388
C        0.493460173   0.245822656   0.006237352
C        0.581927766   0.167691159   0.006868442
C        0.748693626   0.253654823   0.007884132
C        0.836634918   0.173269837   0.008880742
C        0.000023303   0.500046605   0.008620011
C        0.092494241   0.418873280   0.008334029
C        0.268729418   0.499019269   0.009017585
C        0.350175003   0.408040580   0.007816906
C        0.557865575   0.408040580   0.007816906
C        0.730289852   0.499019269   0.009017585
C        0.826379039   0.418873280   0.008334029
C       -0.006512984   0.746211165   0.008417106
C        0.082514852   0.665029704   0.008297987
C        0.252724148   0.746211165   0.008417106
C        0.343368357   0.667018622   0.010447711
C        0.509324078   0.760334967   0.012555076
F        0.655879612   0.811759225  -0.143449220
C        0.751010889   0.760334967   0.012555076
C        0.823650264   0.667018622   0.010447711
C        0.079039978   0.912219932   0.007232661
C        0.333179954   0.912219932   0.007232661
C        0.587934787   0.924015811   0.010053322
C        0.836081023   0.924015811   0.010053322
O        0.592753249   0.685506498   0.023686068
K_POINTS automatic 
  20 20 1   0 0 0 

