 &CONTROL
                 calculation = 'nscf' ,
                      outdir = './tmp/' ,
                  pseudo_dir = '/home/deleted/pseudo_psl' ,
                      prefix = 'GCl_op' ,
                   verbosity = 'high' ,
               etot_conv_thr = 1.0D-5 ,
               forc_conv_thr = 4.0D-4 ,
                       nstep = 1000 ,
                    dipfield = .true. ,
 /
 &SYSTEM
                       ibrav = 4,
                           A = 9.88 ,
                           C = 15 ,
                         nat = 34,
                        ntyp = 4,
                     ecutwfc = 40.424239707 ,
                     ecutrho = 404.24239707 ,
                 occupations = 'tetrahedra' ,
                     degauss = 0.01 ,
				   input_dft = 'vdW-DF' ,
    nspin = 2 ,
    starting_magnetization(1) = 0.5,
    starting_magnetization(2) = 0.5,
    starting_magnetization(3) = 0.5,
 /
 &ELECTRONS
            electron_maxstep = 50001,
                    conv_thr = 1.0D-6 ,
                 mixing_mode = 'local-TF' ,
                 mixing_beta = 0.5 ,
 /
ATOMIC_SPECIES
    C   12.01100  C.revpbe-n-kjpaw_psl.0.1.UPF 
   Cl   35.45200  Cl.revpbe-n-kjpaw_psl.0.3.0.UPF 
    O   15.99940  O.revpbe-n-kjpaw_psl.0.1.UPF 
    H   1.008000  H.revpbe-kjpaw_psl.0.1.UPF
ATOMIC_POSITIONS (crystal)
C        0.018475194  -0.000487086  -0.006478920
C        0.265290494  -0.004794077  -0.015680515
C        0.516998032   0.000685872  -0.014221664
C        0.770441485   0.003811596   0.000985601
C        0.020866352   0.251276751  -0.007941205
C        0.102097750   0.166420644  -0.011064252
C        0.269819437   0.247297306  -0.013992549
C        0.346958530   0.158326680  -0.014996556
C        0.513243416   0.248132099  -0.013084545
C        0.599867696   0.167155573  -0.011354172
C        0.766130216   0.251123178  -0.009217901
C        0.852272302   0.168352845  -0.005295396
C        0.017337664   0.499201200  -0.011552572
C        0.106933584   0.416722262  -0.011854737
C        0.280428680   0.497838507  -0.016109021
C        0.361601919   0.409804515  -0.014022929
C        0.584074835   0.410458551  -0.009196572
C        0.753610444   0.498676901  -0.002609320
C        0.845600089   0.416855780  -0.008249948
C        0.013721799   0.747226398  -0.010273480
C        0.098952759   0.664060841  -0.016037386
C        0.267227047   0.747135574  -0.019626412
C        0.355952779   0.666387247  -0.020754215
C        0.516375452   0.759742903  -0.022133341
Cl       0.643072276   0.686101303   0.121094894
C        0.782809148   0.759755817   0.033740373
C        0.847447283   0.667021651   0.006241150
C        0.098455506   0.913257123  -0.010931599
C        0.350461822   0.913126223  -0.018007730
C        0.603493308   0.919596503  -0.011334646
C        0.853991121   0.919961192   0.010419834
O        0.260340840   0.731552273   0.197190025
O        0.189280687   0.805610168   0.201183242
H        0.330737712   0.845616493   0.391090958
K_POINTS automatic 
  20 20 1   0 0 0 

