 &CONTROL
                 calculation = 'bands' ,
                      outdir = './tmp/' ,
                  pseudo_dir = '/home/deleted/pseudo_psl' ,
                      prefix = 'GCl_op' ,
                   verbosity = 'high' ,
               etot_conv_thr = 1.0D-5 ,
               forc_conv_thr = 4.0D-4 ,
                       nstep = 1000 ,
                    dipfield = .true. ,
 /
 &SYSTEM
                       ibrav = 4,
                           A = 9.88 ,
                           C = 15 ,
                         nat = 34,
                        ntyp = 4,
                     ecutwfc = 40.424239707 ,
                     ecutrho = 404.24239707 ,
                 occupations = 'tetrahedra' ,
                     degauss = 0.01 ,
				   input_dft = 'vdW-DF' ,
 /
 &ELECTRONS
            electron_maxstep = 50001,
                    conv_thr = 1.0D-6 ,
                 mixing_mode = 'local-TF' ,
                 mixing_beta = 0.5 ,
 /
ATOMIC_SPECIES
    C   12.01100  C.revpbe-n-kjpaw_psl.0.1.UPF 
   Cl   35.45200  Cl.revpbe-n-kjpaw_psl.0.3.0.UPF 
    O   15.99940  O.revpbe-n-kjpaw_psl.0.1.UPF 
    H   1.008000  H.revpbe-kjpaw_psl.0.1.UPF
ATOMIC_POSITIONS crystal 
C       -0.029771908   0.009944497  -0.005392246
C        0.214319448   0.000820365  -0.005934174
C        0.467411662   0.009853809  -0.005211043
C        0.722541132   0.017520128  -0.004697490
C       -0.026719572   0.262193500  -0.004630889
C        0.054211951   0.176375264  -0.004877061
C        0.220866622   0.254331414  -0.005042344
C        0.295527320   0.163376038  -0.005368302
C        0.461079780   0.254207195  -0.005035506
C        0.549817332   0.176280931  -0.004937163
C        0.716581769   0.262092714  -0.004757753
C        0.804640202   0.181564479  -0.004597033
C       -0.031652974   0.508822367  -0.005466484
C        0.060813009   0.427319052  -0.004922334
C        0.236810075   0.507246455  -0.005040166
C        0.319026707   0.416430987  -0.004946652
C        0.524820410   0.416357275  -0.004899890
C        0.697866281   0.506894606  -0.005270417
C        0.794262638   0.427216977  -0.005173572
C       -0.037453276   0.754972691  -0.006294090
C        0.050678535   0.673269573  -0.006273696
C        0.220462882   0.754843264  -0.005956581
C        0.310891369   0.675461253  -0.005317518
C        0.476200906   0.769289183  -0.004956718
Cl       0.907007871   0.677067080   0.230456794
C        0.720571404   0.769459317  -0.005037428
C        0.792257178   0.675465284  -0.005189040
C        0.047449627   0.920668761  -0.006162852
C        0.300919491   0.920507505  -0.005842222
C        0.555598723   0.932421663  -0.004933856
C        0.804514297   0.932511204  -0.005020228
O        1.084864276   0.799658885   0.208323622
O        0.560266346   0.692786600  -0.004598214
H        0.823693774   0.652723476   0.155499597
K_POINTS crystal_b 
4
0.0000000000    0.0000000000    0.0000000000 17
0.0000000000    0.5000000000    0.0000000000 10
0.3333333333    0.3333333333    0.0000000000 20
0.0000000000    0.0000000000    0.0000000000 1

