 &CONTROL
                 calculation = 'bands' ,
                      outdir = './tmp/' ,
                  pseudo_dir = '/home/deleted/pseudo_psl' ,
                      prefix = 'GCl_op' ,
                   verbosity = 'high' ,
               etot_conv_thr = 1.0D-5 ,
               forc_conv_thr = 4.0D-4 ,
                       nstep = 1000 ,
                    dipfield = .true. ,
 /
 &SYSTEM
                       ibrav = 4,
                           A = 9.88 ,
                           C = 15 ,
                         nat = 33,
                        ntyp = 3,
                     ecutwfc = 40.424239707 ,
                     ecutrho = 404.24239707 ,
                 occupations = 'tetrahedra' ,
                     degauss = 0.01 ,
				   input_dft = 'vdW-DF' ,
 /
 &ELECTRONS
            electron_maxstep = 50001,
                    conv_thr = 1.0D-6 ,
                 mixing_mode = 'local-TF' ,
                 mixing_beta = 0.5 ,
 /
ATOMIC_SPECIES
    C   12.01100  C.revpbe-n-kjpaw_psl.0.1.UPF 
   Cl   35.45200  Cl.revpbe-n-kjpaw_psl.0.3.0.UPF 
    O   15.99940  O.revpbe-n-kjpaw_psl.0.1.UPF 
ATOMIC_POSITIONS crystal 
C        0.021284990  -0.004083716  -0.000133500
C        0.268105245  -0.013504853  -0.005694996
C        0.523993735  -0.003732133  -0.009024776
C        0.780442857   0.008259136  -0.003787481
C        0.029941348   0.251305786  -0.006602256
C        0.108183434   0.163089296  -0.004868991
C        0.275280249   0.240562083  -0.006597697
C        0.349651575   0.148983131  -0.007113181
C        0.516091392   0.241315080  -0.008817331
C        0.605826850   0.163540351  -0.009212043
C        0.772798122   0.251160569  -0.009932238
C        0.862090513   0.172151568  -0.007439952
C        0.024240448   0.496941768  -0.009035914
C        0.118775966   0.416764740  -0.008086860
C        0.294439035   0.494993810  -0.007976268
C        0.374511632   0.402805993  -0.007827933
C        0.578883793   0.403203773  -0.008583579
C        0.752628897   0.495750030  -0.008455642
C        0.850502800   0.416094636  -0.010142124
C        0.011970396   0.740267582  -0.005612699
C        0.105770596   0.660989080  -0.008025322
C        0.279498104   0.742177119  -0.007625433
C        0.376215819   0.663735664  -0.007990263
C        0.544293539   0.756549199  -0.009590501
Cl       0.707710717   0.714795217   0.141823690
C        0.755888145   0.752502245   0.019960367
C        0.840428974   0.661037657  -0.003169022
C        0.100369424   0.906687746  -0.000549415
C        0.357362643   0.907014019  -0.007827258
C        0.613037890   0.918131760  -0.008194268
C        0.856585511   0.921220320   0.004465301
O        0.119318273   0.757622421   0.195966869
O        0.143103660   0.890137922   0.172550612
K_POINTS crystal_b 
4
0.0000000000    0.0000000000    0.0000000000 17
0.0000000000    0.5000000000    0.0000000000 10
0.3333333333    0.3333333333    0.0000000000 20
0.0000000000    0.0000000000    0.0000000000 1

