 &CONTROL
                 calculation = 'nscf' ,
                      outdir = './tmp/' ,
                  pseudo_dir = '/home/deleted/pseudo_psl' ,
                      prefix = 'GF_ip' ,
                   verbosity = 'high' ,
               etot_conv_thr = 1.0D-5 ,
               forc_conv_thr = 4.0D-4 ,
                       nstep = 1000 ,
                    dipfield = .true. ,
 /
 &SYSTEM
                       ibrav = 4,
                           A = 9.88 ,
                           C = 15 ,
                         nat = 34,
                        ntyp = 4,
                     ecutwfc = 40.424239707 ,
                     ecutrho = 404.24239707 ,
                 occupations = 'tetrahedra' ,
                     degauss = 0.01 ,
				   input_dft = 'vdW-DF' ,
 /
 &ELECTRONS
            electron_maxstep = 50001,
                    conv_thr = 1.0D-6 ,
                 mixing_mode = 'local-TF' ,
                 mixing_beta = 0.5 ,
 /
ATOMIC_SPECIES
    C   12.01100  C.revpbe-n-kjpaw_psl.0.1.UPF 
    F   18.99800  F.revpbe-n-kjpaw_psl.0.1.UPF 
    O   15.99940  O.revpbe-n-kjpaw_psl.0.1.UPF 
    H   1.008000  H.revpbe-kjpaw_psl.0.1.UPF
ATOMIC_POSITIONS crystal 
C       -0.001202820   0.006890555   0.007164665
C        0.247297566   0.005182404   0.010323003
C        0.497322487   0.006966576   0.011776033
C        0.748045771   0.007646199   0.009519839
C       -0.000837179   0.257443421   0.011795546
C        0.080561559   0.172563822   0.013625741
C        0.246388956   0.253234523   0.015293358
C        0.329602284   0.169862846   0.011027285
C        0.496227594   0.253444850   0.006534977
C        0.581414114   0.172670783   0.004856057
C        0.747792503   0.257359020   0.007008341
C        0.831541783   0.173633715   0.008985943
C       -0.001811557   0.506444805   0.010643373
C        0.083519396   0.423682874   0.016906533
C        0.252760849   0.506592614   0.027675156
C        0.328522760   0.416541112   0.021206315
C        0.577707592   0.417058419   0.005819215
C        0.743105612   0.506133291  -0.003221684
C        0.829926829   0.423556491   0.004123370
C       -0.001831366   0.756441012   0.004161748
C        0.081759524   0.672883284   0.010985580
C        0.249050880   0.756496397   0.017916682
C        0.334325314   0.675921335   0.035119301
C        0.494915848   0.771724625   0.057686559
F        0.631320178   0.708589699  -0.079293618
C        0.766428480   0.769343256  -0.030274965
C        0.831633812   0.675114280  -0.010521326
C        0.080908389   0.922485448   0.006934594
C        0.330956514   0.922598328   0.013590615
C        0.581502742   0.926892263   0.024377856
C        0.833790498   0.926672063  -0.004224215
O        0.576107256   0.732299941   0.115749008
O        0.491878117   0.492409141   0.021099473
H        0.532918839   0.619489381   0.117923662
K_POINTS automatic 
  20 20 1   0 0 0 

