 &CONTROL
                 calculation = 'scf' ,
                      outdir = './tmp/' ,
                  pseudo_dir = '/home/deleted/pseudo_psl' ,
                      prefix = 'GF_ip' ,
                   verbosity = 'high' ,
               etot_conv_thr = 1.0D-5 ,
               forc_conv_thr = 4.0D-4 ,
                       nstep = 1000 ,
                    dipfield = .true. ,
 /
 &SYSTEM
                       ibrav = 4,
                           A = 9.88 ,
                           C = 15 ,
                         nat = 33,
                        ntyp = 3,
                     ecutwfc = 40.424239707 ,
                     ecutrho = 404.24239707 ,
                 occupations = 'smearing' ,
                     degauss = 0.01 ,
				   input_dft = 'vdW-DF' ,
    nspin = 2 ,
    starting_magnetization(1) = 0.5,
    starting_magnetization(2) = 0.5,
    starting_magnetization(3) = 0.5,
 /
 &ELECTRONS
            electron_maxstep = 50001,
                    conv_thr = 1.0D-6 ,
                 mixing_mode = 'local-TF' ,
                 mixing_beta = 0.5 ,
 /
ATOMIC_SPECIES
    C   12.01100  C.revpbe-n-kjpaw_psl.0.1.UPF 
    F   18.99800  F.revpbe-n-kjpaw_psl.0.1.UPF 
    O   15.99940  O.revpbe-n-kjpaw_psl.0.1.UPF 
ATOMIC_POSITIONS (crystal)
C        0.000507370  -0.000072557  -0.002119940
C        0.244343605  -0.008394204  -0.004887299
C        0.496460219  -0.000098712  -0.002511500
C        0.751337981   0.005703448   0.004190903
C        0.001580091   0.250675932  -0.001267156
C        0.083618712   0.166185658  -0.002942870
C        0.250419145   0.244543621  -0.004744883
C        0.325703530   0.154370859  -0.005401650
C        0.491155949   0.244529922  -0.004750688
C        0.579613880   0.166169875  -0.003217077
C        0.746149399   0.250672564  -0.001404985
C        0.833463075   0.169863371   0.000767085
C       -0.002911630   0.497103889  -0.002284182
C        0.088137475   0.415914624  -0.002069799
C        0.262531063   0.495082984  -0.002149316
C        0.345544426   0.406610556  -0.003857401
C        0.557966778   0.406638562  -0.003524848
C        0.729515547   0.495069035  -0.001679359
C        0.824839213   0.415912639  -0.001924808
C       -0.005967947   0.744542052  -0.003116093
C        0.079601865   0.662139374  -0.003707605
C        0.247568520   0.744528919  -0.003449780
C        0.335719518   0.662793438  -0.000728774
C        0.494864027   0.762466605   0.003563749
F        0.588370521   0.679741372   0.023300954
C        0.764468557   0.762454266   0.004093125
C        0.824112983   0.662855640  -0.000098728
C        0.077677644   0.910673979  -0.003655929
C        0.330050613   0.910654133  -0.003893027
C        0.584967154   0.922241549   0.002696241
C        0.834292716   0.922288013   0.003053426
O        0.499441285   0.676875306   0.214616535
O        0.401523374   0.532596629   0.213105679
K_POINTS automatic 
  16 16 1   0 0 0 

