 &CONTROL
                 calculation = 'bands' ,
                      outdir = './tmp/' ,
                  pseudo_dir = '/home/deleted/pseudo_psl' ,
                      prefix = 'GBr_op' ,
                   verbosity = 'high' ,
               etot_conv_thr = 1.0D-5 ,
               forc_conv_thr = 4.0D-4 ,
                       nstep = 1000 ,
                    dipfield = .true. ,
 /
 &SYSTEM
                       ibrav = 4,
                           A = 9.88 ,
                           C = 15 ,
                         nat = 34,
                        ntyp = 4,
                     ecutwfc = 40.424239707 ,
                     ecutrho = 404.24239707 ,
                 occupations = 'tetrahedra' ,
                     degauss = 0.01 ,
				   input_dft = 'vdW-DF' ,
 /
 &ELECTRONS
            electron_maxstep = 50001,
                    conv_thr = 1.0D-6 ,
                 mixing_mode = 'local-TF' ,
                 mixing_beta = 0.5 ,
 /
ATOMIC_SPECIES
    C   12.01100  C.revpbe-n-kjpaw_psl.0.1.UPF 
   Br   79.90350  Br.revpbe-n-kjpaw_psl.0.2.UPF 
    O   15.99940  O.revpbe-n-kjpaw_psl.0.1.UPF 
    H   1.008000  H.revpbe-kjpaw_psl.0.1.UPF
ATOMIC_POSITIONS crystal 
C       -0.002889886  -0.002134642   0.001154380
C        0.243363494  -0.012541149   0.001887516
C        0.500037068  -0.002132290   0.001939943
C        0.756336332   0.013503689   0.000919665
C        0.006305382   0.254656512   0.001390588
C        0.083549823   0.165225480   0.001483024
C        0.250510929   0.241838587   0.001803073
C        0.324396213   0.149568530   0.002077402
C        0.490451647   0.241816253   0.002083161
C        0.580784327   0.165221969   0.001981240
C        0.747399571   0.254684676   0.001756903
C        0.837325908   0.175604643   0.001311937
C       -0.000475663   0.500097161   0.001485911
C        0.094805583   0.419383008   0.001445235
C        0.272002055   0.496984682   0.001319234
C        0.350556358   0.403782507   0.001570220
C        0.552266854   0.403827570   0.001838272
C        0.723870816   0.497099191   0.001632274
C        0.823495213   0.419415848   0.001692800
C       -0.014420087   0.743643255   0.001260612
C        0.080888654   0.662850038   0.001365897
C        0.257008163   0.743433884   0.001457953
C        0.356117354   0.665573341   0.001463764
C        0.528854438   0.758972950   0.002805875
Br       0.542723592   0.729680345   0.203198201
C        0.730274177   0.759409064   0.000661079
C        0.808341373   0.665983555   0.001161438
C        0.074240442   0.908363123   0.001435195
C        0.333312562   0.908325634   0.001836827
C        0.590530330   0.921533042   0.001822782
C        0.830199691   0.921349423   0.000580922
O        0.682722166   0.689868843   0.359518074
O        0.552587676   0.708554714   0.335007071
H        0.637224860   0.575965702   0.356067831
K_POINTS automatic  
4
0.0000000000    0.0000000000    0.0000000000 17
0.0000000000    0.5000000000    0.0000000000 10
0.3333333333    0.3333333333    0.0000000000 20
0.0000000000    0.0000000000    0.0000000000 1

