 &CONTROL
                 calculation = 'bands' ,
                      outdir = './tmp/' ,
                  pseudo_dir = '/home/deleted/pseudo_psl' ,
                      prefix = 'GI_ip' ,
                   verbosity = 'high' ,
               etot_conv_thr = 1.0D-5 ,
               forc_conv_thr = 4.0D-4 ,
                       nstep = 1000 ,
                    dipfield = .true. ,
 /
 &SYSTEM
                       ibrav = 4,
                           A = 9.88 ,
                           C = 15 ,
                         nat = 32,
                        ntyp = 3,
                     ecutwfc = 40.424239707 ,
                     ecutrho = 404.24239707 ,
                 occupations = 'tetrahedra' ,
                     degauss = 0.01 ,
				   input_dft = 'vdW-DF' ,
 /
 &ELECTRONS
            electron_maxstep = 50001,
                    conv_thr = 1.0D-6 ,
                 mixing_mode = 'local-TF' ,
                 mixing_beta = 0.5 ,
 /
ATOMIC_SPECIES
    C   12.01100  C.revpbe-n-kjpaw_psl.0.1.UPF 
    I  126.90400  I.revpbe-n-kjpaw_psl.0.2.UPF 
    O   15.99940  O.revpbe-n-kjpaw_psl.0.1.UPF 
ATOMIC_POSITIONS crystal 
C        0.001084925   0.000119681   0.004656529
C        0.253605581   0.007211162   0.008397543
C        0.499034756   0.000119681   0.004656529
C        0.746965803  -0.006068393  -0.004948042
C       -0.003677910   0.245956116   0.010838888
C        0.082241804   0.166553814   0.004648054
C        0.248277863   0.253056790  -0.006738954
C        0.336363010   0.172726021  -0.004726648
C        0.504778927   0.253056790  -0.006738954
C        0.584312009   0.166553814   0.004648054
C        0.749634025   0.245956116   0.010838888
C        0.829731811   0.159463623   0.008158866
C       -0.000346427   0.499307145   0.022738483
C        0.077315748   0.413130036   0.015737589
C        0.237923421   0.498107155  -0.000396786
C        0.314379152   0.415576791  -0.017339262
C        0.601197638   0.415576791  -0.017339262
C        0.760183734   0.498107155  -0.000396786
C        0.835814287   0.413130036   0.015737589
C        0.006010092   0.753533990   0.015798188
C        0.083672532   0.667345064   0.022761608
C        0.247523898   0.753533990   0.015798188
C        0.323143556   0.668547228  -0.000377125
C        0.482089667   0.751076992  -0.017415542
I        0.541652110   0.583304222  -0.058927692
C        0.768987325   0.751076992  -0.017415542
C        0.845403671   0.668547228  -0.000377125
C        0.086996698   0.920712295   0.010957915
C        0.333715598   0.920712295   0.010957915
C        0.578538716   0.913603501  -0.006833013
C        0.835064785   0.913603501  -0.006833013
O        0.541714524   0.583429048   0.079472916
K_POINTS crystal_b 
4
0.0000000000    0.0000000000    0.0000000000 17
0.0000000000    0.5000000000    0.0000000000 10
0.3333333333    0.3333333333    0.0000000000 20
0.0000000000    0.0000000000    0.0000000000 1

