 &CONTROL
                 calculation = 'bands' ,
                      outdir = './tmp/' ,
                  pseudo_dir = '/home/deleted/pseudo_psl' ,
                      prefix = 'GF_ip' ,
                   verbosity = 'high' ,
               etot_conv_thr = 1.0D-5 ,
               forc_conv_thr = 4.0D-4 ,
                       nstep = 1000 ,
                    dipfield = .true. ,
 /
 &SYSTEM
                       ibrav = 4,
                           A = 9.88 ,
                           C = 15 ,
                         nat = 33,
                        ntyp = 3,
                     ecutwfc = 40.424239707 ,
                     ecutrho = 404.24239707 ,
                 occupations = 'tetrahedra' ,
                     degauss = 0.01 ,
				   input_dft = 'vdW-DF' ,
    nspin = 2 ,
    starting_magnetization(1) = 0.5,
    starting_magnetization(2) = 0.5,
    starting_magnetization(3) = 0.5,
 /
 &ELECTRONS
            electron_maxstep = 50001,
                    conv_thr = 1.0D-6 ,
                 mixing_mode = 'local-TF' ,
                 mixing_beta = 0.5 ,
 /
ATOMIC_SPECIES
    C   12.01100  C.revpbe-n-kjpaw_psl.0.1.UPF 
    F   18.99800  F.revpbe-n-kjpaw_psl.0.1.UPF 
    O   15.99940  O.revpbe-n-kjpaw_psl.0.1.UPF 
ATOMIC_POSITIONS (crystal)
C        0.000710690   0.005538821   0.003196210
C        0.244646933  -0.002740172   0.006297935
C        0.496849883   0.005565268   0.002683152
C        0.751731415   0.011465423  -0.004972391
C        0.001978310   0.256405618   0.002000252
C        0.083924737   0.171822206   0.004166089
C        0.250808599   0.250308355   0.005628050
C        0.326048126   0.160077976   0.006750457
C        0.491545237   0.250296045   0.005494878
C        0.579953674   0.171822608   0.003868256
C        0.746492503   0.256377485   0.001818625
C        0.833802316   0.175542708  -0.000389749
C       -0.002512869   0.502848025   0.002130378
C        0.088595045   0.421618761   0.002098169
C        0.263221222   0.500892846   0.001373970
C        0.346191453   0.412480635   0.003327892
C        0.558309729   0.412454761   0.003344798
C        0.729788364   0.500824060   0.001324127
C        0.825141687   0.421614910   0.001997769
C       -0.005724545   0.750254249   0.003458604
C        0.079976575   0.667852961   0.003718690
C        0.248070660   0.750294462   0.003143925
C        0.336410753   0.668634117  -0.001065164
C        0.495295605   0.768261083  -0.006831908
F        0.590158274   0.687514587  -0.031636001
C        0.764737723   0.768109559  -0.006395292
C        0.824288949   0.668598905  -0.000707422
C        0.077936880   0.916315807   0.004815146
C        0.330369298   0.916303662   0.004467045
C        0.585310154   0.928013644  -0.004294501
C        0.834638915   0.927911384  -0.003766299
O        0.587799200   0.712763869   0.172708171
O        0.460264092   0.679663512   0.210246141
K_POINTS automatic 
  20 20 1   0 0 0 

