 &CONTROL
                 calculation = 'bands' ,
                      outdir = './tmp/' ,
                  pseudo_dir = '/home/deleted/pseudo_psl' ,
                      prefix = 'GF_ip' ,
                   verbosity = 'high' ,
               etot_conv_thr = 1.0D-5 ,
               forc_conv_thr = 4.0D-4 ,
                       nstep = 1000 ,
                    dipfield = .true. ,
 /
 &SYSTEM
                       ibrav = 4,
                           A = 9.88 ,
                           C = 15 ,
                         nat = 34,
                        ntyp = 4,
                     ecutwfc = 40.424239707 ,
                     ecutrho = 404.24239707 ,
                 occupations = 'tetrahedra' ,
                     degauss = 0.01 ,
				   input_dft = 'vdW-DF' ,
    nspin = 2 ,
    starting_magnetization(1) = 0.5,
    starting_magnetization(2) = 0.5,
    starting_magnetization(3) = 0.5,
 /
 &ELECTRONS
            electron_maxstep = 50001,
                    conv_thr = 1.0D-6 ,
                 mixing_mode = 'local-TF' ,
                 mixing_beta = 0.5 ,
 /
ATOMIC_SPECIES
    C   12.01100  C.revpbe-n-kjpaw_psl.0.1.UPF 
    F   18.99800  F.revpbe-n-kjpaw_psl.0.1.UPF 
    O   15.99940  O.revpbe-n-kjpaw_psl.0.1.UPF 
    H   1.008000  H.revpbe-kjpaw_psl.0.1.UPF
ATOMIC_POSITIONS (crystal)
C       -0.001620286  -0.007250343   0.003720969
C        0.242427084  -0.015404687   0.007041638
C        0.494487012  -0.007301290   0.002666333
C        0.749334242  -0.001424110  -0.004739406
C       -0.000362745   0.243612481   0.003344086
C        0.081536590   0.159010976   0.005359491
C        0.248413057   0.237556931   0.007113967
C        0.323792118   0.147430375   0.008017591
C        0.489332024   0.237493882   0.006784106
C        0.577652913   0.158908072   0.004693248
C        0.744166433   0.243517027   0.002928380
C        0.831399990   0.162574312   0.000707294
C       -0.004734670   0.490134749   0.003129124
C        0.086255789   0.408857527   0.003282489
C        0.260830507   0.488290524   0.002054918
C        0.343355699   0.399786455   0.004614810
C        0.556434810   0.399663878   0.004677238
C        0.727729823   0.488090711   0.002312159
C        0.822975596   0.408807436   0.003196757
C       -0.007871951   0.737591409   0.003962937
C        0.077790220   0.655169295   0.004229764
C        0.245848574   0.737696729   0.003015416
C        0.334102892   0.656065369  -0.001647471
C        0.492383434   0.755780008  -0.009725048
F        0.587679382   0.673989437  -0.030155179
C        0.762680438   0.755411667  -0.007172505
C        0.822135423   0.655972673  -0.000347145
C        0.075731531   0.903655861   0.005362855
C        0.328115270   0.903579059   0.004571278
C        0.582834698   0.915147387  -0.005110723
C        0.832365231   0.915138857  -0.003802098
O        0.556767111   0.681410420   0.171687223
O        0.428226153   0.698138189   0.197373370
H        0.538664004   0.587098792   0.203790764
K_POINTS automatic 
  20 20 1   0 0 0 

