 &CONTROL
                 calculation = 'nscf' ,
                      outdir = './tmp/' ,
                  pseudo_dir = '/home/deleted/pseudo_psl' ,
                      prefix = 'GBr_op' ,
                   verbosity = 'high' ,
               etot_conv_thr = 1.0D-5 ,
               forc_conv_thr = 4.0D-4 ,
                       nstep = 1000 ,
                    dipfield = .true. ,
 /
 &SYSTEM
                       ibrav = 4,
                           A = 9.88 ,
                           C = 15 ,
                         nat = 34,
                        ntyp = 4,
                     ecutwfc = 40.424239707 ,
                     ecutrho = 404.24239707 ,
                 occupations = 'tetrahedra' ,
                     degauss = 0.01 ,
				   input_dft = 'vdW-DF' ,
    nspin = 2 ,
    starting_magnetization(1) = 0.5,
    starting_magnetization(2) = 0.5,
    starting_magnetization(3) = 0.5,
 /
 &ELECTRONS
            electron_maxstep = 50001,
                    conv_thr = 1.0D-6 ,
                 mixing_mode = 'local-TF' ,
                 mixing_beta = 0.5 ,
    diagonalization = 'cg' ,
 /
ATOMIC_SPECIES
    C   12.01100  C.revpbe-n-kjpaw_psl.0.1.UPF 
   Br   79.90350  Br.revpbe-n-kjpaw_psl.0.2.UPF 
    O   15.99940  O.revpbe-n-kjpaw_psl.0.1.UPF 
    H   1.008000  H.revpbe-kjpaw_psl.0.1.UPF
ATOMIC_POSITIONS (crystal)
C        0.004913682   0.017057104   0.000450610
C        0.251161217   0.006769086  -0.000424076
C        0.507683623   0.017046884   0.000043913
C        0.764074414   0.032614181   0.000623711
C        0.014197209   0.273863811   0.000716090
C        0.091390448   0.184396284   0.000570557
C        0.258323646   0.260968637   0.000111197
C        0.332202436   0.168829842  -0.000461101
C        0.498230612   0.260970805  -0.000200843
C        0.588577546   0.184390127   0.000193654
C        0.755219488   0.273863389   0.000501791
C        0.845112755   0.194677256   0.000797595
C        0.007466842   0.519395677   0.000144668
C        0.102735287   0.438648176   0.000298897
C        0.279904835   0.516412485  -0.000102772
C        0.358321203   0.423071263   0.000153453
C        0.560419651   0.423016056  -0.000026597
C        0.732024238   0.516385436  -0.000010187
C        0.831448173   0.438638488   0.000243479
C       -0.006405009   0.762912855  -0.000067553
C        0.088861111   0.682178295  -0.000105546
C        0.264844295   0.762903634  -0.000228362
C        0.364383251   0.685282981  -0.000389156
C        0.535950051   0.778484725  -0.000463823
Br       0.536405714   0.620603355   0.241698927
C        0.738057690   0.778472896  -0.000268889
C        0.816399266   0.685269493  -0.000177259
C        0.082142453   0.927643741   0.000003909
C        0.341031825   0.927641741  -0.000276576
C        0.597982957   0.940431270   0.000087084
C        0.837972687   0.940428937   0.000366771
O        0.410819598   0.092853553   0.224942066
O        0.327893514   0.153802919   0.220883889
H        0.482768292   0.526106067   0.162160541
K_POINTS automatic 
  20 20 1   0 0 0 

