 &CONTROL
                 calculation = 'nscf' ,
                      outdir = './tmp/' ,
                  pseudo_dir = '/home/deleted/pseudo_psl' ,
                      prefix = 'GBr_op' ,
                   verbosity = 'high' ,
               etot_conv_thr = 1.0D-5 ,
               forc_conv_thr = 4.0D-4 ,
                       nstep = 1000 ,
                    dipfield = .true. ,
 /
 &SYSTEM
                       ibrav = 4,
                           A = 9.88 ,
                           C = 15 ,
                         nat = 33,
                        ntyp = 3,
                     ecutwfc = 40.424239707 ,
                     ecutrho = 404.24239707 ,
                 occupations = 'tetrahedra' ,
                     degauss = 0.01 ,
				   input_dft = 'vdW-DF' ,
    nspin = 2 ,
    starting_magnetization(1) = 0.5,
    starting_magnetization(2) = 0.5,
    starting_magnetization(3) = 0.5,
 /
 &ELECTRONS
            electron_maxstep = 50001,
                    conv_thr = 1.0D-6 ,
                 mixing_mode = 'local-TF' ,
                 mixing_beta = 0.5 ,
 /
ATOMIC_SPECIES
    C   12.01100  C.revpbe-n-kjpaw_psl.0.1.UPF 
   Br   79.90350  Br.revpbe-n-kjpaw_psl.0.2.UPF 
    O   15.99940  O.revpbe-n-kjpaw_psl.0.1.UPF 
ATOMIC_POSITIONS (crystal)
C        0.005640480   0.013988058  -0.004165420
C        0.251738448   0.003476896  -0.004171966
C        0.508347578   0.013988058  -0.004165420
C        0.764312298   0.028624596  -0.004685360
C        0.014332803   0.270434703  -0.004855840
C        0.092060086   0.181169459  -0.004571251
C        0.259074713   0.258047167  -0.004989249
C        0.333104505   0.166209013  -0.004819878
C        0.498972454   0.258047167  -0.004989249
C        0.589109373   0.181169459  -0.004571251
C        0.756101900   0.270434703  -0.004855840
C        0.845820742   0.191641486  -0.004765702
C        0.007790718   0.515581437  -0.005421553
C        0.102836074   0.435328766  -0.005388658
C        0.280767219   0.513465896  -0.005698978
C        0.359500799   0.420423287  -0.005358395
C        0.560922487   0.420423287  -0.005358395
C        0.732698677   0.513465896  -0.005698978
C        0.832492692   0.435328766  -0.005388658
C       -0.005454553   0.759578404  -0.004860171
C        0.089692663   0.679385327  -0.005207083
C        0.265032958   0.759578404  -0.004860171
C        0.364116154   0.681578214  -0.005323525
C        0.536112041   0.774729329  -0.003313304
Br       0.606882865   0.713765730   0.182164673
C        0.738617288   0.774729329  -0.003313304
C        0.817462060   0.681578214  -0.005323525
C        0.083169092   0.924627655  -0.004122567
C        0.341458561   0.924627655  -0.004122567
C        0.598659725   0.937404733  -0.004191033
C        0.838745007   0.937404733  -0.004191033
O        0.390855971   0.281711940   0.286706579
O        0.372359452   0.244718905   0.207210399
K_POINTS automatic 
  20 20 1   0 0 0 

