 &CONTROL
                 calculation = 'scf' ,
                      outdir = './tmp/' ,
                  pseudo_dir = '/home/deleted/pseudo_psl' ,
                      prefix = 'PG_tc' ,
                    dipfield = .true. ,
                   verbosity = 'high',
                       nstep = 1000,
               forc_conv_thr = 4.0D-4,
               etot_conv_thr = 1.0D-5
 /
 &SYSTEM
                       ibrav = 4,
                           A = 9.88 ,
                           C = 15 ,
                         nat = 33,
                        ntyp = 2,
                     ecutwfc = 40.424239707 ,
                     ecutrho = 404.24239707 ,
                 occupations = 'smearing' ,
                     degauss = 0.01 ,
				   input_dft = 'vdW-DF' ,
    nspin = 2 ,
    starting_magnetization(1) = 0.5,
	starting_magnetization(2) = 0.5,
 /
 &ELECTRONS
            electron_maxstep = 50001,
                    conv_thr = 1.0D-6 ,
                 mixing_mode = 'local-TF' ,
                 mixing_beta = 0.5 ,
 /
ATOMIC_SPECIES
    C   12.01100  C.revpbe-n-kjpaw_psl.0.1.UPF 
    O   15.99940  O.revpbe-n-kjpaw_psl.0.1.UPF 
ATOMIC_POSITIONS crystal 
C       -0.001112826  -0.000556413  -0.002647898
C        0.250556413  -0.000556413  -0.002647898
C        0.501165672   0.000898536  -0.000179051
C        0.749732864   0.000898536  -0.000179051
C        0.000014514   0.249985486  -0.003608793
C        0.082897462   0.167102538  -0.003040552
C        0.250556413   0.251112826  -0.002647898
C        0.334205076   0.167102538  -0.003040552
C        0.499970971   0.249985486  -0.003608793
C        0.583729601   0.166939884  -0.002981157
C        0.750104122   0.250208243  -0.003199189
C        0.833210282   0.166939884  -0.002981157
C       -0.000208243   0.499895878  -0.003199189
C        0.083060116   0.416789718  -0.002981157
C        0.249101464   0.500267136  -0.000179051
C        0.333283489   0.416566980  -0.000690876
C        0.501165672   0.500267136  -0.000179051
C        0.583729601   0.416789718  -0.002981157
C        0.750104122   0.499895878  -0.003199189
C        0.833333333   0.416666667  -0.003557442
C        0.000014514   0.750029029  -0.003608793
C        0.083060116   0.666270399  -0.002981157
C        0.249101464   0.748834328  -0.000179051
C        0.330115675   0.665057838   0.004093136
C        0.500000000   0.750000000   0.027263980
C        0.584942162   0.665057838   0.004093136
C        0.749732864   0.748834328  -0.000179051
C        0.833210282   0.666270399  -0.002981157
C        0.082897462   0.915794924  -0.003040552
C        0.333283489   0.916716511  -0.000690876
C        0.584942162   0.919884325   0.004093136
C        0.833433020   0.916716511  -0.000690876
O        0.500000000   0.750000000   0.122537227
K_POINTS automatic 
  16 16 1   0 0 0 

