 &CONTROL
                 calculation = 'nscf' ,
                      outdir = './tmp/' ,
                  pseudo_dir = '/home/deleted/pseudo_psl' ,
                      prefix = 'GI_op' ,
                   verbosity = 'high' ,
               etot_conv_thr = 1.0D-5 ,
               forc_conv_thr = 4.0D-4 ,
                       nstep = 1000 ,
                    dipfield = .true. ,
 /
 &SYSTEM
                       ibrav = 4,
                           A = 9.88 ,
                           C = 15 ,
                         nat = 34,
                        ntyp = 4,
                     ecutwfc = 40.424239707 ,
                     ecutrho = 404.24239707 ,
                 occupations = 'tetrahedra' ,
                     degauss = 0.01 ,
				   input_dft = 'vdW-DF' ,
    nspin = 2 ,
    starting_magnetization(1) = 0.5,
    starting_magnetization(2) = 0.5,
    starting_magnetization(3) = 0.5,
 /
 &ELECTRONS
            electron_maxstep = 50001,
                    conv_thr = 1.0D-6 ,
                 mixing_mode = 'local-TF' ,
                 mixing_beta = 0.5 ,
    diagonalization = 'cg' ,
 /
ATOMIC_SPECIES
    C   12.01100  C.revpbe-n-kjpaw_psl.0.1.UPF 
    I  126.90400  I.revpbe-n-kjpaw_psl.0.2.UPF 
    O   15.99940  O.revpbe-n-kjpaw_psl.0.1.UPF 
    H   1.008000  H.revpbe-kjpaw_psl.0.1.UPF
ATOMIC_POSITIONS (crystal)
C        0.000582582  -0.000378308  -0.006071221
C        0.246748365  -0.010703994  -0.005852345
C        0.503325803  -0.000352089  -0.005786294
C        0.759545172   0.014740093  -0.005915540
C        0.009512324   0.256230706  -0.006111443
C        0.086887882   0.166779975  -0.005874102
C        0.253877480   0.243574607  -0.006056475
C        0.327995929   0.151702060  -0.005663266
C        0.493998006   0.243591506  -0.005955251
C        0.584188782   0.166818649  -0.005663034
C        0.750992012   0.256255281  -0.005968477
C        0.840707731   0.177145988  -0.005761946
C        0.002842196   0.501514736  -0.007187474
C        0.097915314   0.421020130  -0.006985493
C        0.275594572   0.498849928  -0.007572055
C        0.353646675   0.405717976  -0.006978624
C        0.556468698   0.405727148  -0.006944588
C        0.727565421   0.498856454  -0.007539898
C        0.827326297   0.421033898  -0.006901061
C       -0.010454767   0.745439182  -0.007347323
C        0.084556133   0.664965935  -0.007372125
C        0.260132333   0.745454311  -0.007128917
C        0.359990901   0.667628131  -0.007672358
C        0.531167582   0.760759648  -0.007212338
I        0.763359895   0.660837050   0.241300011
C        0.733996412   0.760802644  -0.007430889
C        0.811997790   0.667612329  -0.007813852
C        0.077953000   0.910194539  -0.006387891
C        0.336501629   0.910215085  -0.006169582
C        0.593533410   0.922868780  -0.006197030
C        0.833656639   0.922896160  -0.006537776
O        0.352184810   0.653653311   0.214516317
O        0.245649614   0.515860014   0.213085977
H        0.280697391   0.597504874   0.415659529
K_POINTS automatic 
  20 20 1   0 0 0 

