 &CONTROL
                 calculation = 'bands' ,
                      outdir = './tmp/' ,
                  pseudo_dir = '/home/deleted/pseudo_psl' ,
                      prefix = 'GF_ip' ,
                    dipfield = .true. ,
                   verbosity = 'high',
                       nstep = 1000,
               forc_conv_thr = 4.0D-4,
               etot_conv_thr = 1.0D-5
 /
 &SYSTEM
                       ibrav = 4,
                           A = 9.88 ,
                           C = 15 ,
                         nat = 31,
                        ntyp = 2,
                     ecutwfc = 40.424239707 ,
                     ecutrho = 404.24239707 ,
                 occupations = 'tetrahedra' ,
                     degauss = 0.01 ,
				   input_dft = 'vdW-DF' ,
 /
 &ELECTRONS
            electron_maxstep = 50001,
                    conv_thr = 1.0D-6 ,
                 mixing_mode = 'local-TF' ,
                 mixing_beta = 0.5 ,
 /
ATOMIC_SPECIES
    C   12.01100  C.revpbe-n-kjpaw_psl.0.1.UPF 
    F   18.99800  F.revpbe-n-kjpaw_psl.0.1.UPF 
ATOMIC_POSITIONS crystal 
C        0.006115526   0.001991718   0.000000000
C        0.249415785  -0.010005521   0.000000000
C        0.498661771  -0.010006837   0.000000000
C        0.753953293   0.001986471   0.000000000
C        0.004273442   0.250467418   0.000000000
C        0.089626460   0.168135401   0.000000000
C        0.259321588   0.249838204   0.000000000
C        0.318248806   0.149455430   0.000000000
F        0.496931401   0.235792419   0.000000000
C        0.589313078   0.149455231   0.000000000
C        0.748612614   0.249858573   0.000000000
C        0.836592969   0.168134225   0.000000000
C       -0.004546399   0.496529905   0.000000000
C        0.086800417   0.415546739   0.000000000
C        0.259115967   0.496515335   0.000000000
C        0.354427867   0.417311759   0.000000000
C        0.527170770   0.506140786   0.000000000
C        0.737014243   0.506143145   0.000000000
C        0.820957404   0.417328018   0.000000000
C        0.000010188   0.746288872   0.000000000
C        0.082171692   0.661781327   0.000000000
C        0.250192979   0.742348326   0.000000000
C        0.337627550   0.661750285   0.000000000
C        0.504310257   0.746276653   0.000000000
C        0.592973260   0.668170471   0.000000000
C        0.758289004   0.758538517   0.000000000
C        0.833241509   0.668174212   0.000000000
C        0.083010008   0.912407042   0.000000000
C        0.332383101   0.906685966   0.000000000
C        0.587465904   0.912397705   0.000000000
C        0.839650872   0.921228878   0.000000000
K_POINTS crystal_b 
4
0.0000000000    0.0000000000    0.0000000000 17
0.0000000000    0.5000000000    0.0000000000 10
0.3333333333    0.3333333333    0.0000000000 20
0.0000000000    0.0000000000    0.0000000000 1

