 &CONTROL
                 calculation = 'scf' ,
                      outdir = './tmp_subs/' ,
                  pseudo_dir = '/home/deleted/pseudo_psl' ,
                      prefix = 'GCl_op-subs' ,
                   verbosity = 'high' ,
               etot_conv_thr = 1.0D-5 ,
               forc_conv_thr = 4.0D-4 ,
                       nstep = 1000 ,
                    dipfield = .true. ,
 /
 &SYSTEM
                       ibrav = 4,
                           A = 9.88 ,
                           C = 15 ,
                         nat = 31,
                        ntyp = 2,
                     ecutwfc = 40.424239707 ,
                     ecutrho = 404.24239707 ,
                 occupations = 'smearing' ,
                     degauss = 0.01 ,
				   input_dft = 'vdW-DF' ,
    nspin = 2 ,
    starting_magnetization(1) = 0.5,
    starting_magnetization(2) = 0.5,
 /
 &ELECTRONS
            electron_maxstep = 50001,
                    conv_thr = 1.0D-6 ,
                 mixing_mode = 'local-TF' ,
                 mixing_beta = 0.5 ,
 /
ATOMIC_SPECIES
    C   12.01100  C.revpbe-n-kjpaw_psl.0.1.UPF 
   Cl   35.45200  Cl.revpbe-n-kjpaw_psl.0.3.0.UPF 
ATOMIC_POSITIONS (crystal)
C        0.001980153   0.001205144  -0.006478770
C        0.247260231  -0.005479538  -0.015043059
C        0.499224990   0.001205144  -0.006478770
C        0.752994361   0.005988723   0.012485240
C        0.002926195   0.251531866  -0.005315932
C        0.085272811   0.167628637  -0.009908220
C        0.252583388   0.247353402  -0.014154654
C        0.328877101   0.157754203  -0.016519319
C        0.494770014   0.247353402  -0.014154654
C        0.582355825   0.167628637  -0.009908220
C        0.748605672   0.251531866  -0.005315932
C        0.834940398   0.169880798   0.000360708
C       -0.000566765   0.498866470  -0.006609462
C        0.089080125   0.417135289  -0.006001646
C        0.262706792   0.497699569  -0.003910503
C        0.345308949   0.409592874  -0.009855611
C        0.564283924   0.409592874  -0.009855611
C        0.734992777   0.497699569  -0.003910503
C        0.828055164   0.417135289  -0.006001646
C       -0.002927459   0.746714992  -0.009003921
C        0.081965228   0.663930456  -0.011032007
C        0.249642451   0.746714992  -0.009003921
C        0.335904252   0.665491876   0.003069115
C        0.493972948   0.761853812   0.023021871
Cl       0.591754568   0.683509138   0.086300941
C        0.767880865   0.761853812   0.023021871
C        0.829587623   0.665491876   0.003069115
C        0.080442144   0.913052310  -0.011031068
C        0.332610166   0.913052310  -0.011031068
C        0.584986835   0.923243675   0.011347116
C        0.838256839   0.923243675   0.011347116
K_POINTS automatic 
  16 16 1   0 0 0 

