 &CONTROL
                 calculation = 'scf' ,
                      outdir = './tmp/' ,
                  pseudo_dir = '/home/deleted/pseudo_psl' ,
                      prefix = 'GBr_ip' ,
                   verbosity = 'high' ,
               etot_conv_thr = 1.0D-5 ,
               forc_conv_thr = 4.0D-4 ,
                       nstep = 1000 ,
                    dipfield = .true. ,
 /
 &SYSTEM
                       ibrav = 4,
                           A = 9.88 ,
                           C = 15 ,
                         nat = 34,
                        ntyp = 4,
                     ecutwfc = 40.424239707 ,
                     ecutrho = 404.24239707 ,
                 occupations = 'smearing' ,
                     degauss = 0.01 ,
				   input_dft = 'vdW-DF' ,
 /
 &ELECTRONS
            electron_maxstep = 50001,
                    conv_thr = 1.0D-6 ,
                 mixing_mode = 'local-TF' ,
                 mixing_beta = 0.5 ,
 /
ATOMIC_SPECIES
    C   12.01100  C.revpbe-n-kjpaw_psl.0.1.UPF 
   Br   79.90350  Br.revpbe-n-kjpaw_psl.0.2.UPF 
    O   15.99940  O.revpbe-n-kjpaw_psl.0.1.UPF 
    H   1.008000  H.revpbe-kjpaw_psl.0.1.UPF
ATOMIC_POSITIONS crystal 
C        0.003641689   0.016947293  -0.001831514
C        0.255055907   0.019542326  -0.004041796
C        0.504290389   0.018915238  -0.008017793
C        0.752562177   0.017171577  -0.002624698
C        0.004588852   0.267748942  -0.007086973
C        0.086910689   0.184115566  -0.000012464
C        0.253720259   0.268794905   0.010214689
C        0.338368072   0.184934503   0.005998213
C        0.505735448   0.265623575   0.002595351
C        0.588695536   0.184346909  -0.013402989
C        0.754991696   0.266966826  -0.015770291
C        0.837296807   0.183162128  -0.011698606
C        0.005787944   0.518037911  -0.016527459
C        0.087677689   0.434682531  -0.006488870
C        0.252501732   0.519050389   0.014183718
C        0.327478123   0.430809870   0.025840726
C        0.600964827   0.425688228   0.018441938
C        0.757412949   0.516057535  -0.005053811
C        0.839165700   0.433424043  -0.018003522
C        0.004604521   0.768759960  -0.013920545
C        0.087425225   0.684557674  -0.014250963
C        0.253457811   0.767831178  -0.004437321
C        0.332730971   0.686068731   0.016260515
C        0.492140808   0.790045064   0.053820927
Br       0.529103316   0.522123734   0.100943292
C        0.757055620   0.768580748  -0.007722077
C        0.837011993   0.685875623  -0.008946862
C        0.087070788   0.934776004  -0.007087577
C        0.337517736   0.936267333  -0.005428950
C        0.588402941   0.939489995   0.006678033
C        0.835273041   0.931160008  -0.002537608
O        0.522977678   0.774049224   0.132490066
O        0.718676808   0.557323617   0.187214077
H        0.752656618   0.659368744   0.214230948
K_POINTS automatic 
  16 16 1   0 0 0 

