 &CONTROL
                 calculation = 'relax' ,
                      outdir = './tmp/' ,
                  pseudo_dir = '/home/deleted/pseudo_psl' ,
                      prefix = 'GBr_ip' ,
                   verbosity = 'high' ,
               etot_conv_thr = 1.0D-5 ,
               forc_conv_thr = 4.0D-4 ,
                       nstep = 1000 ,
                    dipfield = .true. ,
 /
 &SYSTEM
                       ibrav = 4,
                           A = 9.88 ,
                           C = 15 ,
                         nat = 34,
                        ntyp = 4,
                     ecutwfc = 40.424239707 ,
                     ecutrho = 404.24239707 ,
                 occupations = 'smearing' ,
                     degauss = 0.01 ,
				   input_dft = 'vdW-DF' ,
 /
 &ELECTRONS
            electron_maxstep = 50001,
                    conv_thr = 1.0D-6 ,
                 mixing_mode = 'local-TF' ,
                 mixing_beta = 0.5 ,
 /
 &IONS
                ion_dynamics = 'bfgs' ,
 /
ATOMIC_SPECIES
    C   12.01100  C.revpbe-n-kjpaw_psl.0.1.UPF 
   Br   79.90350  Br.revpbe-n-kjpaw_psl.0.2.UPF 
    O   15.99940  O.revpbe-n-kjpaw_psl.0.1.UPF 
    H   1.008000  H.revpbe-kjpaw_psl.0.1.UPF
ATOMIC_POSITIONS crystal 
C        0.003830922   0.006273346  -0.002718099
C        0.256370599   0.012741199  -0.005594705
C        0.502442425   0.006273346  -0.002718099
C        0.750564307   0.001128613   0.003488379
C        0.000185955   0.253358257  -0.007222768
C        0.085836681   0.173377914  -0.002848994
C        0.253720413   0.260447858   0.003785951
C        0.339299992   0.178599985   0.002757329
C        0.506727446   0.260447858   0.003785951
C        0.587541232   0.173377914  -0.002848994
C        0.753172302   0.253358257  -0.007222768
C        0.833452766   0.166905533  -0.005279142
C        0.002964166   0.505928333  -0.016529004
C        0.080757607   0.420001102  -0.011721731
C        0.243935215   0.505007996  -0.001580007
C        0.321056779   0.423918726   0.010784830
C        0.602861945   0.423918726   0.010784830
C        0.761072780   0.505007996  -0.001580007
C        0.839243494   0.420001102  -0.011721731
C        0.009111511   0.759876432  -0.011902615
C        0.087001103   0.674002206  -0.016829126
C        0.250764922   0.759876432  -0.011902615
C        0.328976822   0.674934225  -0.001104041
C        0.486801520   0.756032650   0.012841404
Br       0.544312642   0.588625286   0.038357611
C        0.769231130   0.756032650   0.012841404
C        0.845957403   0.674934225  -0.001104041
C        0.089639893   0.926385855  -0.007383581
C        0.336745961   0.926385855  -0.007383581
C        0.583205386   0.919400781   0.004864179
C        0.836195393   0.919400781   0.004864179
O        0.664656236   0.829312472   0.185519957
O        0.609029715   0.718059430   0.242519647
H        0.726285695   0.728964591   0.214019802
K_POINTS automatic 
  4 4 1   0 0 0 

