 &CONTROL
                 calculation = 'nscf' ,
                      outdir = './tmp/' ,
                  pseudo_dir = '/home/deleted/pseudo_psl' ,
                      prefix = 'GI_op' ,
                   verbosity = 'high' ,
               etot_conv_thr = 1.0D-5 ,
               forc_conv_thr = 4.0D-4 ,
                       nstep = 1000 ,
                    dipfield = .true. ,
 /
 &SYSTEM
                       ibrav = 4,
                           A = 9.88 ,
                           C = 15 ,
                         nat = 34,
                        ntyp = 4,
                     ecutwfc = 40.424239707 ,
                     ecutrho = 404.24239707 ,
                 occupations = 'tetrahedra' ,
                     degauss = 0.01 ,
				   input_dft = 'vdW-DF' ,
 /
 &ELECTRONS
            electron_maxstep = 50001,
                    conv_thr = 1.0D-6 ,
                 mixing_mode = 'local-TF' ,
                 mixing_beta = 0.5 ,
 /
ATOMIC_SPECIES
    C   12.01100  C.revpbe-n-kjpaw_psl.0.1.UPF 
    I  126.90400  I.revpbe-n-kjpaw_psl.0.2.UPF 
    O   15.99940  O.revpbe-n-kjpaw_psl.0.1.UPF 
    H   1.008000  H.revpbe-kjpaw_psl.0.1.UPF
ATOMIC_POSITIONS crystal 
C        0.001914138   0.004162921  -0.008679561
C        0.248121249  -0.006218351  -0.008852013
C        0.504862363   0.004220565  -0.009422829
C        0.761306395   0.019995659  -0.009169016
C        0.011353728   0.261039226  -0.008569447
C        0.088517054   0.171552323  -0.008404831
C        0.255433136   0.248063856  -0.008483592
C        0.329189702   0.155778475  -0.008529273
C        0.495250469   0.248108985  -0.008817086
C        0.585660339   0.171609689  -0.008918759
C        0.752273172   0.261086291  -0.008851601
C        0.842271127   0.181977184  -0.008718522
C        0.004462382   0.506496627  -0.009360532
C        0.099999974   0.425745312  -0.009048474
C        0.277330607   0.503174019  -0.009433317
C        0.355963283   0.410062231  -0.009021993
C        0.556808179   0.410105523  -0.009236458
C        0.728522291   0.503442179  -0.009647399
C        0.828269468   0.425808430  -0.009204424
C       -0.009751794   0.749925082  -0.009631063
C        0.085685581   0.669191079  -0.009672732
C        0.261930660   0.750003548  -0.009812311
C        0.361900654   0.672285592  -0.009965295
C        0.533970164   0.765723597  -0.010288279
I        0.642118523   0.641172188   0.251133874
C        0.734688227   0.765720728  -0.009917245
C        0.812959169   0.672321404  -0.010000282
C        0.079010107   0.914642581  -0.008991317
C        0.338179006   0.914766574  -0.009435505
C        0.595310738   0.927768458  -0.009867704
C        0.835010280   0.927677855  -0.009207884
O        0.427219189   0.766032257   0.214532947
O        0.592748593   0.819046416   0.213331775
H        0.397043993   0.728419397   0.152920747
K_POINTS automatic 
  20 20 1   0 0 0 

