 &CONTROL
                 calculation = 'scf' ,
                      outdir = './tmp/' ,
                  pseudo_dir = '/home/deleted/pseudo_psl' ,
                      prefix = 'GCl_ip' ,
                   verbosity = 'high' ,
               etot_conv_thr = 1.0D-5 ,
               forc_conv_thr = 4.0D-4 ,
                       nstep = 1000 ,
                    dipfield = .true. ,
 /
 &SYSTEM
                       ibrav = 4,
                           A = 9.88 ,
                           C = 15 ,
                         nat = 33,
                        ntyp = 3,
                     ecutwfc = 40.424239707 ,
                     ecutrho = 404.24239707 ,
                 occupations = 'smearing' ,
                     degauss = 0.01 ,
				   input_dft = 'vdW-DF' ,
    nspin = 2 ,
    starting_magnetization(1) = 0.5,
    starting_magnetization(2) = 0.5,
    starting_magnetization(3) = 0.5,
 /
 &ELECTRONS
            electron_maxstep = 50001,
                    conv_thr = 1.0D-6 ,
                 mixing_mode = 'local-TF' ,
                 mixing_beta = 0.5 ,
 /
ATOMIC_SPECIES
    C   12.01100  C.revpbe-n-kjpaw_psl.0.1.UPF 
   Cl   35.45200  Cl.revpbe-n-kjpaw_psl.0.3.0.UPF 
    O   15.99940  O.revpbe-n-kjpaw_psl.0.1.UPF 
ATOMIC_POSITIONS (crystal)
C        0.001841348   0.002300081  -0.000365774
C        0.254284694   0.008451408  -0.000328036
C        0.500601447   0.002317431  -0.001245599
C        0.748667053  -0.002754566  -0.001537968
C       -0.001324470   0.249732040  -0.000531954
C        0.084310966   0.169583111  -0.001252879
C        0.252728516   0.257313545  -0.002628710
C        0.337420910   0.174715769  -0.001634077
C        0.504711110   0.257298777  -0.001048817
C        0.585436011   0.169597358  -0.000302966
C        0.751228458   0.249730547   0.000719468
C        0.831828376   0.163500781  -0.000166798
C        0.001097911   0.501903186   0.001763320
C        0.079368218   0.416262267  -0.000463060
C        0.243645323   0.501271621  -0.003533573
C        0.323701003   0.421717920  -0.005104817
C        0.598079705   0.421757458  -0.000859759
C        0.757686774   0.501214230   0.001672408
C        0.837106716   0.416236448   0.002217606
C        0.006850250   0.755619289   0.002171146
C        0.085088906   0.669894534   0.001701611
C        0.248993507   0.755639587  -0.000614431
C        0.328339949   0.670731776  -0.003596315
C        0.487947296   0.750257528  -0.005157670
Cl       0.542984799   0.585856386  -0.005335709
C        0.762392326   0.750221039  -0.000864608
C        0.842466285   0.670703393   0.001664089
C        0.087471069   0.922139169   0.000595316
C        0.334815671   0.922169434  -0.000672933
C        0.581355360   0.914651298  -0.002591798
C        0.833410108   0.914669081  -0.001040857
O        0.477887132   0.581523612   0.213053141
O        0.354243935   0.587107803   0.215321005
K_POINTS automatic 
  16 16 1   0 0 0 

