 &BANDS
                      prefix = 'GCl_ip' ,
                      outdir = './tmp/' ,
                     filband = 'GCl_bands' ,
                     plot_2d = .false. ,
 /
