&INPUTPP
                 outdir= './tmp_subs/'
                 prefix = 'GI_ip_subs' ,
                 filplot = 'GI_chgbader_subs'
                 plot_num = 0,
                 spin_component = 0,    
 /
&PLOT
                 nfile = 1 
                 filepp(1) = 'GI_chgbader_subs'
                 weight(1) = 1.0 ,
                 fileout = 'GI_chgbader_subs.cube',
                 iflag  = 3,
                 output_format = 6
 /
