 &CONTROL
                 calculation = 'relax' ,
                      outdir = './tmp/' ,
                  pseudo_dir = '/home/deleted/pseudo_psl' ,
                      prefix = 'GI_ip' ,
                   verbosity = 'high' ,
               etot_conv_thr = 1.0D-5 ,
               forc_conv_thr = 4.0D-4 ,
                       nstep = 1000 ,
                    dipfield = .true. ,
 /
 &SYSTEM
                       ibrav = 4,
                           A = 9.88 ,
                           C = 15 ,
                         nat = 34,
                        ntyp = 4,
                     ecutwfc = 40.424239707 ,
                     ecutrho = 404.24239707 ,
                 occupations = 'smearing' ,
                     degauss = 0.01 ,
				   input_dft = 'vdW-DF' ,
 /
 &ELECTRONS
            electron_maxstep = 50001,
                    conv_thr = 1.0D-6 ,
                 mixing_mode = 'local-TF' ,
                 mixing_beta = 0.5 ,
 /
 &IONS
                ion_dynamics = 'bfgs' ,
 /
ATOMIC_SPECIES
    C   12.01100  C.revpbe-n-kjpaw_psl.0.1.UPF 
    I  126.90400  I.revpbe-n-kjpaw_psl.0.2.UPF 
    O   15.99940  O.revpbe-n-kjpaw_psl.0.1.UPF 
    H   1.008000  H.revpbe-kjpaw_psl.0.1.UPF
ATOMIC_POSITIONS crystal 
C        0.016290398   0.025771445   0.005416606
C        0.269097145   0.033073006   0.007844553
C        0.514369138   0.025409962   0.003719887
C        0.762362049   0.019569981  -0.003938488
C        0.012104509   0.272015864   0.011420897
C        0.097965974   0.192518958   0.004746516
C        0.264603443   0.279121688  -0.006657667
C        0.351850611   0.198267727  -0.004721153
C        0.520036446   0.279093944  -0.005812906
C        0.599813816   0.192164357   0.004735380
C        0.765337895   0.271805722   0.011766463
C        0.845115859   0.184848526   0.008574904
C        0.015658104   0.525129914   0.024666107
C        0.092889006   0.438839989   0.016834219
C        0.254245070   0.523639065   0.000806544
C        0.329725521   0.441630830  -0.016356607
C        0.617885728   0.441997924  -0.013750350
C        0.775131593   0.523720742   0.004343514
C        0.851715019   0.438520140   0.018607474
C        0.021990356   0.779625233   0.018229839
C        0.099522326   0.693252113   0.024171084
C        0.262949513   0.779287374   0.015947637
C        0.339302542   0.694165960   0.000522119
C        0.496780948   0.776034005  -0.016570417
I        0.558147283   0.608513760  -0.056024478
C        0.784075359   0.775618297  -0.012714676
C        0.860125459   0.694218238   0.004639472
C        0.102410462   0.946354970   0.011433014
C        0.348985984   0.946016850   0.010076374
C        0.594142178   0.938505965  -0.006881196
C        0.849437363   0.938678894  -0.004520063
O        0.561156160   0.632602903   0.117509059
O        0.475781273   0.490344540   0.170952106
H        0.554278014   0.506599417   0.216035514
K_POINTS automatic 
  4 4 1   0 0 0 

