 &CONTROL
                 calculation = 'scf' ,
                      outdir = './tmp/' ,
                  pseudo_dir = '/home/deleted/pseudo_psl' ,
                      prefix = 'GF_ip' ,
                   verbosity = 'high' ,
               etot_conv_thr = 1.0D-5 ,
               forc_conv_thr = 4.0D-4 ,
                       nstep = 1000 ,
                    dipfield = .true. ,
 /
 &SYSTEM
                       ibrav = 4,
                           A = 9.88 ,
                           C = 15 ,
                         nat = 32,
                        ntyp = 3,
                     ecutwfc = 40.424239707 ,
                     ecutrho = 404.24239707 ,
                 occupations = 'smearing' ,
                     degauss = 0.01 ,
				   input_dft = 'vdW-DF' ,
 /
 &ELECTRONS
            electron_maxstep = 50001,
                    conv_thr = 1.0D-6 ,
                 mixing_mode = 'local-TF' ,
                 mixing_beta = 0.5 ,
 /
ATOMIC_SPECIES
    C   12.01100  C.revpbe-n-kjpaw_psl.0.1.UPF 
    F   18.99800  F.revpbe-n-kjpaw_psl.0.1.UPF 
    O   15.99940  O.revpbe-n-kjpaw_psl.0.1.UPF 
ATOMIC_POSITIONS crystal 
C        0.001371815   0.001136657   0.006279100
C        0.246051551  -0.007896897   0.004795764
C        0.499764842   0.001136657   0.006279100
C        0.754412449   0.008824898   0.009884834
C        0.004967071   0.253620233   0.006785872
C        0.085759708   0.167651772   0.005493170
C        0.252356031   0.245791538   0.004657289
C        0.327583362   0.155166724   0.003985150
C        0.493435506   0.245791538   0.004657289
C        0.581892063   0.167651772   0.005493170
C        0.748653160   0.253620233   0.006785872
C        0.836631037   0.173262075   0.007958360
C       -0.000011687   0.499976626   0.007493135
C        0.092505167   0.418831705   0.007241795
C        0.268776852   0.498981373   0.007966454
C        0.350239153   0.408017579   0.006451438
C        0.557778425   0.408017579   0.006451438
C        0.730204521   0.498981373   0.007966454
C        0.826326537   0.418831705   0.007241795
C       -0.006558267   0.746153982   0.007304599
C        0.082483030   0.664966060   0.007111887
C        0.252712248   0.746153982   0.007304599
C        0.343394259   0.666990027   0.009605403
C        0.509350859   0.760295913   0.011946159
F        0.656436767   0.812873536  -0.142795730
C        0.750945054   0.760295913   0.011946159
C        0.823595767   0.666990027   0.009605403
C        0.079009093   0.912163516   0.005901849
C        0.333154421   0.912163516   0.005901849
C        0.587936909   0.924005142   0.009269461
C        0.836068232   0.924005142   0.009269461
O        0.592774057   0.685548112   0.023761423
K_POINTS automatic 
  16 16 1   0 0 0 

