 &CONTROL
                 calculation = 'bands' ,
                      outdir = './tmp/' ,
                  pseudo_dir = '/home/deleted/pseudo_psl' ,
                      prefix = 'GBr_ip' ,
                   verbosity = 'high' ,
               etot_conv_thr = 1.0D-5 ,
               forc_conv_thr = 4.0D-4 ,
                       nstep = 1000 ,
                    dipfield = .true. ,
 /
 &SYSTEM
                       ibrav = 4,
                           A = 9.88 ,
                           C = 15 ,
                         nat = 31,
                        ntyp = 2,
                     ecutwfc = 40.424239707 ,
                     ecutrho = 404.24239707 ,
                 occupations = 'tetrahedra' ,
                     degauss = 0.01 ,
				   input_dft = 'vdW-DF' ,
    nspin = 2 ,
    starting_magnetization(1) = 0.5,
    starting_magnetization(2) = 0.5,
 /
 &ELECTRONS
            electron_maxstep = 50001,
                    conv_thr = 1.0D-6 ,
                 mixing_mode = 'local-TF' ,
                 mixing_beta = 0.5 ,
 /
ATOMIC_SPECIES
    C   12.01100  C.revpbe-n-kjpaw_psl.0.1.UPF 
   Br   79.90350  Br.revpbe-n-kjpaw_psl.0.2.UPF 
ATOMIC_POSITIONS (crystal)
C        0.002446981   0.002986043   0.000000000
C        0.254312655   0.008625311   0.000000000
C        0.500539062   0.002986043   0.000000000
C        0.748719818  -0.002560363   0.000000000
C       -0.001878698   0.249506221   0.000000000
C        0.083529620   0.169072327   0.000000000
C        0.250670053   0.255571638   0.000000000
C        0.337286061   0.174572124   0.000000000
C        0.504901585   0.255571638   0.000000000
C        0.585542706   0.169072327   0.000000000
C        0.751384919   0.249506221   0.000000000
C        0.831696464   0.163392930   0.000000000
C        0.001055690   0.502111380   0.000000000
C        0.078080370   0.415972691   0.000000000
C        0.241363748   0.500869610   0.000000000
C        0.318580492   0.418378661   0.000000000
C        0.599798168   0.418378661   0.000000000
C        0.759505862   0.500869610   0.000000000
C        0.837892320   0.415972691   0.000000000
C        0.007923148   0.756109145   0.000000000
C        0.085020026   0.670040052   0.000000000
C        0.248185997   0.756109145   0.000000000
C        0.326509866   0.671153235   0.000000000
C        0.486230284   0.753631019   0.000000000
Br       0.542993479   0.585986959   0.000000000
C        0.767400736   0.753631019   0.000000000
C        0.844643368   0.671153235   0.000000000
C        0.087879971   0.922550732   0.000000000
C        0.334670760   0.922550732   0.000000000
C        0.581134888   0.916447817   0.000000000
C        0.835312928   0.916447817   0.000000000
K_POINTS automatic 
  20 20 1   0 0 0 

