 &BANDS
                      prefix = 'GBr_ip' ,
                      outdir = './tmp/' ,
                     filband = 'GBr_ip-up-bands' ,
                     plot_2d = .false. ,
    spin_component = 1 ,
    no_overlap = .true. ,
 /
