 &CONTROL
                 calculation = 'nscf' ,
                      outdir = './tmp/' ,
                  pseudo_dir = '/home/deleted/pseudo_psl' ,
                      prefix = 'GCl_ip' ,
                   verbosity = 'high' ,
               etot_conv_thr = 1.0D-5 ,
               forc_conv_thr = 4.0D-4 ,
                       nstep = 1000 ,
                    dipfield = .true. ,
 /
 &SYSTEM
                       ibrav = 4,
                           A = 9.88 ,
                           C = 15 ,
                         nat = 34,
                        ntyp = 4,
                     ecutwfc = 40.424239707 ,
                     ecutrho = 404.24239707 ,
                 occupations = 'tetrahedra' ,
                     degauss = 0.01 ,
				   input_dft = 'vdW-DF' ,
 /
 &ELECTRONS
            electron_maxstep = 50001,
                    conv_thr = 1.0D-6 ,
                 mixing_mode = 'local-TF' ,
                 mixing_beta = 0.5 ,
 /
ATOMIC_SPECIES
    C   12.01100  C.revpbe-n-kjpaw_psl.0.1.UPF 
   Cl   35.45200  Cl.revpbe-n-kjpaw_psl.0.3.0.UPF 
    O   15.99940  O.revpbe-n-kjpaw_psl.0.1.UPF 
    H   1.008000  H.revpbe-kjpaw_psl.0.1.UPF
ATOMIC_POSITIONS crystal 
C        0.002268146   0.004493997   0.005652126
C        0.251759433   0.002185711   0.013569739
C        0.501969092   0.006057813   0.016885412
C        0.750459990   0.005930462   0.004134034
C        0.003229830   0.256059495   0.005884472
C        0.085076149   0.172386699   0.010145868
C        0.253175916   0.255896268   0.012860007
C        0.334767710   0.168511262   0.015911542
C        0.497419466   0.251991513   0.020011906
C        0.583834218   0.172631979   0.013364135
C        0.750382694   0.255987092   0.009916108
C        0.834089411   0.173435326   0.005181976
C        0.002357022   0.505382476   0.005682881
C        0.088327347   0.422296699   0.009033377
C        0.259641898   0.504682265   0.018089027
C        0.341004524   0.417848878   0.012164851
C        0.577182412   0.421592199   0.036683150
C        0.747835315   0.507439314   0.000177641
C        0.832030173   0.424400300   0.004565713
C        0.002338026   0.754867132   0.002341815
C        0.085073695   0.670834526   0.008725822
C        0.251987826   0.752576063   0.018295270
C        0.334366456   0.670840712   0.027832262
C        0.499848647   0.762981677   0.053461680
Cl       0.611063889   0.684838923  -0.110084492
C        0.768102133   0.765551888  -0.035040171
C        0.835800386   0.672794191  -0.011746923
C        0.084868080   0.920637874   0.006326886
C        0.335002547   0.920830364   0.018848692
C        0.587565038   0.925893841   0.020164885
C        0.836798148   0.923244425  -0.008625552
O        0.562169894   0.713850063   0.107125422
O        0.578765256   0.454826605   0.127109483
H        0.581118027   0.555972775   0.132570055
K_POINTS automatic 
  20 20 1   0 0 0 

