&PROJWFC
  outdir = './tmp',
  prefix = 'H',
  filpdos = 'H-pdos',
  ngauss = 1,
  degauss = 0.01,
  DeltaE = 0.01,
  lsym = .true.
/
