 &BANDS
    prefix = 'PG_ip' ,
    outdir = './tmp/' ,
    filband = 'PG_ip-up-bands' ,
    plot_2d = .false. ,
    spin_component = 1 ,
    no_overlap = .true. ,
 /
