 &CONTROL
                 calculation = 'bands' ,
                      outdir = './tmp/' ,
                  pseudo_dir = '/home/deleted/pseudo_psl' ,
                      prefix = 'GI_op' ,
                   verbosity = 'high' ,
               etot_conv_thr = 1.0D-5 ,
               forc_conv_thr = 4.0D-4 ,
                       nstep = 1000 ,
                    dipfield = .true. ,
 /
 &SYSTEM
                       ibrav = 4,
                           A = 9.88 ,
                           C = 15 ,
                         nat = 32,
                        ntyp = 3,
                     ecutwfc = 40.424239707 ,
                     ecutrho = 404.24239707 ,
                 occupations = 'tetrahedra' ,
                     degauss = 0.01 ,
				   input_dft = 'vdW-DF' ,
    nspin = 2 ,
    starting_magnetization(1) = 0.5,
    starting_magnetization(2) = 0.5,
    starting_magnetization(3) = 0.5,
 /
 &ELECTRONS
            electron_maxstep = 50001,
                    conv_thr = 1.0D-6 ,
                 mixing_mode = 'local-TF' ,
                 mixing_beta = 0.5 ,
 /
ATOMIC_SPECIES
    C   12.01100  C.revpbe-n-kjpaw_psl.0.1.UPF 
    I  126.90400  I.revpbe-n-kjpaw_psl.0.2.UPF 
    O   15.99940  O.revpbe-n-kjpaw_psl.0.1.UPF 
ATOMIC_POSITIONS (crystal)
C        0.002691000   0.002747986  -0.004548558
C        0.249326720  -0.006293047  -0.002679586
C        0.504232133   0.003588572   0.000655860
C        0.757769773   0.013558114  -0.000087432
C        0.008261594   0.257198988  -0.007828429
C        0.088089423   0.170014791  -0.006898575
C        0.255754132   0.248724838  -0.008014090
C        0.330561176   0.157047543  -0.006312393
C        0.495923328   0.248029324  -0.006951643
C        0.585089468   0.170286148  -0.005333097
C        0.751639978   0.257438321  -0.006109947
C        0.839990781   0.177564678  -0.005799353
C        0.002872778   0.503201709  -0.005445013
C        0.095181024   0.422329816  -0.007172278
C        0.272795113   0.502935504  -0.004159479
C        0.354066152   0.410613930  -0.007345833
C        0.560425389   0.410811828  -0.007140457
C        0.731720205   0.501779706  -0.005546117
C        0.828559040   0.422693399  -0.006239558
C       -0.005808352   0.748940255  -0.002389444
C        0.085383865   0.667641429  -0.002729407
C        0.257417618   0.747263828   0.001410991
C        0.348408786   0.667318739   0.005352869
C        0.521557164   0.762763875   0.032915275
I        0.487450957   0.573629643   0.208891878
C        0.743296628   0.760956613  -0.001556082
C        0.819979110   0.670849035  -0.002579562
C        0.080741018   0.913945606  -0.003066330
C        0.336694854   0.914374573   0.001541271
C        0.594164529   0.928877206   0.007260011
C        0.835594720   0.923392276  -0.001945987
O        0.542271180   0.772698022   0.125684104
K_POINTS automatic 
  20 20 1   0 0 0 

