 &CONTROL
                 calculation = 'nscf' ,
                      outdir = './tmp/' ,
                  pseudo_dir = '/home/deleted/pseudo_psl' ,
                      prefix = 'MVG_txc' ,
                    dipfield = .true. ,
                   verbosity = 'high',
                       nstep = 1000,
               forc_conv_thr = 4.0D-4,
               etot_conv_thr = 1.0D-5
 /
 &SYSTEM
                       ibrav = 4,
                           A = 9.88 ,
                           C = 15 ,
                         nat = 32,
                        ntyp = 2,
                     ecutwfc = 40.424239707 ,
                     ecutrho = 404.24239707 ,
                 occupations = 'tetrahedra' ,
                     degauss = 0.01 ,
				   input_dft = 'vdW-DF' ,
    nspin = 2 ,
    starting_magnetization(1) = 0.5,
	starting_magnetization(2) = 0.5,
 /
 &ELECTRONS
            electron_maxstep = 50001,
                    conv_thr = 1.0D-6 ,
                 mixing_mode = 'local-TF' ,
                 mixing_beta = 0.5 ,
 /
 &IONS
                ion_dynamics = 'bfgs' ,
 /
ATOMIC_SPECIES
    C   12.01100  C.revpbe-n-kjpaw_psl.0.1.UPF 
    O   15.99940  O.revpbe-n-kjpaw_psl.0.1.UPF 
ATOMIC_POSITIONS crystal 
C        0.000446847   0.002898166  -0.005541184
C        0.246961267  -0.002196716  -0.009802878
C        0.498556818   0.002896572  -0.005473649
C        0.751975136   0.007840622   0.004445274
C        0.002640140   0.254203493  -0.006064789
C        0.083989133   0.169505355  -0.008851979
C        0.251391949   0.250193605  -0.011685507
C        0.328335518   0.160576153  -0.012638557
C        0.494903768   0.250181161  -0.011694761
C        0.581610051   0.169494106  -0.008874590
C        0.747663199   0.254201681  -0.006086016
C        0.833764382   0.171434014  -0.003314778
C       -0.000858133   0.502187028  -0.003424525
C        0.088761018   0.419664551  -0.004291406
C        0.261948684   0.501140918  -0.001849210
C        0.341744267   0.411952369  -0.008716901
C        0.566305248   0.411937042  -0.008737739
C        0.735294203   0.501131743  -0.001934175
C        0.826998867   0.419658519  -0.004325539
C       -0.004719626   0.749564038  -0.003441540
C        0.081327406   0.666535649  -0.004957007
C        0.250394343   0.749556997  -0.003322735
C        0.338288907   0.670001550   0.005464059
C        0.501434880   0.759910604   0.018451043
C        0.596200616   0.696234803   0.058122251
C        0.754568928   0.759876648   0.018332196
C        0.827831483   0.669991077   0.005325215
C        0.079549780   0.915750629  -0.006412864
C        0.332312910   0.915744349  -0.006347406
C        0.583690466   0.922794514   0.005224978
C        0.835209790   0.922785431   0.005150679
O        0.557236058   0.618309945   0.127274042
K_POINTS automatic 
  20 20 1   0 0 0 

