 &CONTROL
                 calculation = 'bands' ,
                      outdir = './tmp/' ,
                  pseudo_dir = '/home/deleted/pseudo_psl' ,
                      prefix = 'GF_ip' ,
                   verbosity = 'high' ,
               etot_conv_thr = 1.0D-5 ,
               forc_conv_thr = 4.0D-4 ,
                       nstep = 1000 ,
                    dipfield = .true. ,
 /
 &SYSTEM
                       ibrav = 4,
                           A = 9.88 ,
                           C = 15 ,
                         nat = 33,
                        ntyp = 3,
                     ecutwfc = 40.424239707 ,
                     ecutrho = 404.24239707 ,
                 occupations = 'tetrahedra' ,
                     degauss = 0.01 ,
				   input_dft = 'vdW-DF' ,
    nspin = 2 ,
    starting_magnetization(1) = 0.5,
    starting_magnetization(2) = 0.5,
    starting_magnetization(3) = 0.5,
 /
 &ELECTRONS
            electron_maxstep = 50001,
                    conv_thr = 1.0D-6 ,
                 mixing_mode = 'local-TF' ,
                 mixing_beta = 0.5 ,
 /
ATOMIC_SPECIES
    C   12.01100  C.revpbe-n-kjpaw_psl.0.1.UPF 
    F   18.99800  F.revpbe-n-kjpaw_psl.0.1.UPF 
    O   15.99940  O.revpbe-n-kjpaw_psl.0.1.UPF 
ATOMIC_POSITIONS (crystal)
C        0.002805330   0.001385229   0.000066972
C        0.246641538  -0.006716925   0.000199394
C        0.498579899   0.001385229   0.000066972
C        0.753437420   0.006874840   0.000185994
C        0.003687563   0.252026959   0.000197310
C        0.085724941   0.167550526   0.000129755
C        0.252463554   0.245933676   0.000045304
C        0.328009003   0.156018005   0.000120482
C        0.493470122   0.245933676   0.000045304
C        0.581825584   0.167550526   0.000129755
C        0.748339395   0.252026959   0.000197310
C        0.835531245   0.171062490   0.000297474
C       -0.000730183   0.498539636   0.000080766
C        0.090096683   0.417276732   0.000092466
C        0.264430282   0.496583588  -0.000074621
C        0.346958882   0.407894338  -0.000103699
C        0.560935455   0.407894338  -0.000103699
C        0.732153306   0.496583588  -0.000074621
C        0.827180048   0.417276732   0.000092466
C       -0.003425746   0.746151856   0.000010473
C        0.081825771   0.663651542   0.000064239
C        0.249577601   0.746151856   0.000010473
C        0.337554040   0.664443466  -0.000286292
C        0.496642963   0.764082104  -0.000730265
F        0.589130690   0.678261380  -0.000326127
C        0.767439141   0.764082104  -0.000730265
C        0.826889425   0.664443466  -0.000286292
C        0.080074444   0.912257687   0.000141574
C        0.332183242   0.912257687   0.000141574
C        0.587105919   0.923631390  -0.000124314
C        0.836525470   0.923631390  -0.000124314
O        0.653230760   0.678438135   0.200324226
O        0.525207375   0.678438135   0.200324226
K_POINTS automatic 
  20 20 1   0 0 0 

