 &CONTROL
                 calculation = 'scf' ,
                      outdir = './tmp/' ,
                  pseudo_dir = '/home/deleted/pseudo_psl' ,
                      prefix = 'GBr_ip' ,
                   verbosity = 'high' ,
               etot_conv_thr = 1.0D-5 ,
               forc_conv_thr = 4.0D-4 ,
                       nstep = 1000 ,
                    dipfield = .true. ,
 /
 &SYSTEM
                       ibrav = 4,
                           A = 9.88 ,
                           C = 15 ,
                         nat = 34,
                        ntyp = 4,
                     ecutwfc = 40.424239707 ,
                     ecutrho = 404.24239707 ,
                 occupations = 'smearing' ,
                     degauss = 0.01 ,
				   input_dft = 'vdW-DF' ,
 /
 &ELECTRONS
            electron_maxstep = 50001,
                    conv_thr = 1.0D-6 ,
                 mixing_mode = 'local-TF' ,
                 mixing_beta = 0.5 ,
 /
ATOMIC_SPECIES
    C   12.01100  C.revpbe-n-kjpaw_psl.0.1.UPF 
   Br   79.90350  Br.revpbe-n-kjpaw_psl.0.2.UPF 
    O   15.99940  O.revpbe-n-kjpaw_psl.0.1.UPF 
    H   1.008000  H.revpbe-kjpaw_psl.0.1.UPF
ATOMIC_POSITIONS crystal 
C       -0.003475042  -0.006940848   0.002144305
C        0.249076821  -0.000188702   0.003657569
C        0.494986219  -0.006853699   0.001925982
C        0.742931063  -0.012645497  -0.002208713
C       -0.007371088   0.239835669   0.005625261
C        0.078443161   0.160041291   0.001651103
C        0.246250719   0.247450547  -0.004086194
C        0.332075328   0.165753736  -0.003174072
C        0.499649097   0.247570661  -0.003213116
C        0.580062842   0.160136051   0.002227516
C        0.745657858   0.239872489   0.006266356
C        0.825871764   0.153311062   0.004243719
C       -0.004510793   0.492497150   0.013766217
C        0.073028013   0.406425527   0.009542393
C        0.236275097   0.491516612   0.002329365
C        0.314398425   0.411132066  -0.007875150
C        0.595133938   0.411229730  -0.005877945
C        0.753594582   0.491595831   0.004379782
C        0.831790285   0.406422709   0.010593170
C        0.001947552   0.746720794   0.010421025
C        0.079508811   0.660611226   0.013593002
C        0.243098703   0.746700532   0.009541255
C        0.321321992   0.661463249   0.002830676
C        0.479993698   0.741951397  -0.006392407
Br       0.537731553   0.576457222  -0.027726862
C        0.760317323   0.741890911  -0.004743051
C        0.838459258   0.661482154   0.004697243
C        0.082331654   0.913224280   0.005861635
C        0.329310231   0.913268165   0.005487650
C        0.575412411   0.905685468  -0.002975257
C        0.828669667   0.905581257  -0.002450592
O        0.530431801   0.555665081   0.137882299
O        0.605729069   0.706820827   0.179636067
H        0.516690311   0.717566511   0.198911957
K_POINTS automatic 
  16 16 1   0 0 0 

