 &CONTROL
                 calculation = 'bands' ,
                      outdir = './tmp/' ,
                  pseudo_dir = '/home/deleted/pseudo_psl' ,
                      prefix = 'GBr_ip' ,
                   verbosity = 'high' ,
               etot_conv_thr = 1.0D-5 ,
               forc_conv_thr = 4.0D-4 ,
                       nstep = 1000 ,
                    dipfield = .true. ,
 /
 &SYSTEM
                       ibrav = 4,
                           A = 9.88 ,
                           C = 15 ,
                         nat = 34,
                        ntyp = 4,
                     ecutwfc = 40.424239707 ,
                     ecutrho = 404.24239707 ,
                 occupations = 'tetrahedra' ,
                     degauss = 0.01 ,
				   input_dft = 'vdW-DF' ,
    nspin = 2 ,
    starting_magnetization(1) = 0.5,
    starting_magnetization(2) = 0.5,
    starting_magnetization(3) = 0.5,
 /
 &ELECTRONS
            electron_maxstep = 50001,
                    conv_thr = 1.0D-6 ,
                 mixing_mode = 'local-TF' ,
                 mixing_beta = 0.5 ,
 /
ATOMIC_SPECIES
    C   12.01100  C.revpbe-n-kjpaw_psl.0.1.UPF 
   Br   79.90350  Br.revpbe-n-kjpaw_psl.0.2.UPF 
    O   15.99940  O.revpbe-n-kjpaw_psl.0.1.UPF 
    H   1.008000  H.revpbe-kjpaw_psl.0.1.UPF
ATOMIC_POSITIONS (crystal)
C       -0.002890856   0.005656103   0.001725226
C        0.249732052   0.012540750   0.004941533
C        0.495454576   0.005644272   0.001730598
C        0.743604496   0.000260281  -0.004540191
C       -0.006691070   0.252612786   0.006987974
C        0.079089657   0.172828314   0.002003571
C        0.246911255   0.260127380  -0.005369210
C        0.332622264   0.178307945  -0.004415080
C        0.500120415   0.260061764  -0.006254481
C        0.580666706   0.172835253   0.001255786
C        0.746254174   0.252625555   0.006327058
C        0.826495030   0.166042672   0.004645336
C       -0.003947227   0.505187794   0.017106419
C        0.073893471   0.419233047   0.012126947
C        0.236927470   0.504330297   0.001634423
C        0.313794577   0.423480870  -0.012270537
C        0.596605929   0.423366069  -0.013822335
C        0.754391984   0.504292758   0.000176922
C        0.832344901   0.419270309   0.011273984
C        0.002269301   0.759201623   0.011805116
C        0.080075397   0.673248558   0.017271725
C        0.243868297   0.759258667   0.012197249
C        0.321848072   0.674185407   0.001594619
C        0.479577249   0.755004260  -0.012396670
Br       0.537849478   0.589368625  -0.037895470
C        0.762353255   0.755118196  -0.013187291
C        0.839318718   0.674218156   0.000576605
C        0.082899688   0.925878424   0.006906410
C        0.329921684   0.925882328   0.007051206
C        0.576045237   0.918403521  -0.005660457
C        0.829343212   0.918503364  -0.005946850
O        0.530991740   0.607098006   0.157588880
O        0.514005436   0.467559300   0.193904267
H        0.608636383   0.504451424   0.230353395
K_POINTS automatic 
  20 20 1   0 0 0 

