 &CONTROL
                 calculation = 'bands' ,
                      outdir = './tmp/' ,
                  pseudo_dir = '/home/deleted/pseudo_psl' ,
                      prefix = 'GCl_ip' ,
                   verbosity = 'high' ,
               etot_conv_thr = 1.0D-5 ,
               forc_conv_thr = 4.0D-4 ,
                       nstep = 1000 ,
                    dipfield = .true. ,
 /
 &SYSTEM
                       ibrav = 4,
                           A = 9.88 ,
                           C = 15 ,
                         nat = 34,
                        ntyp = 4,
                     ecutwfc = 40.424239707 ,
                     ecutrho = 404.24239707 ,
                 occupations = 'tetrahedra' ,
                     degauss = 0.01 ,
				   input_dft = 'vdW-DF' ,
 /
 &ELECTRONS
            electron_maxstep = 50001,
                    conv_thr = 1.0D-6 ,
                 mixing_mode = 'local-TF' ,
                 mixing_beta = 0.5 ,
 /
ATOMIC_SPECIES
    C   12.01100  C.revpbe-n-kjpaw_psl.0.1.UPF 
   Cl   35.45200  Cl.revpbe-n-kjpaw_psl.0.3.0.UPF 
    O   15.99940  O.revpbe-n-kjpaw_psl.0.1.UPF 
    H   1.008000  H.revpbe-kjpaw_psl.0.1.UPF
ATOMIC_POSITIONS crystal 
C        0.005043715   0.006680352   0.008431139
C        0.250508363   0.000146272   0.016056487
C        0.502746755   0.006908840   0.007221696
C        0.755915115   0.011543698  -0.011558707
C        0.006380396   0.257227987   0.007441832
C        0.088388698   0.172826955   0.012149542
C        0.255669823   0.252724828   0.016214664
C        0.332068005   0.163376199   0.017963494
C        0.498376978   0.252974252   0.015606312
C        0.585745621   0.172818137   0.011321787
C        0.752172387   0.257114515   0.007075181
C        0.838224304   0.175355873   0.001248481
C        0.003220337   0.504634900   0.008418410
C        0.092620841   0.422516267   0.008491308
C        0.266742101   0.503659666   0.007441649
C        0.348295934   0.415254290   0.011948458
C        0.567876408   0.414901866   0.010929152
C        0.738816560   0.503391880   0.005241081
C        0.831753670   0.422733925   0.007832838
C        0.000529442   0.752519502   0.010142321
C        0.085706080   0.669914847   0.011869437
C        0.253115634   0.753148262   0.009733728
C        0.340344084   0.671739665   0.001245329
C        0.496605762   0.767437743  -0.022777256
Cl       0.594384440   0.688105154  -0.084994630
C        0.771597798   0.767558147  -0.022029930
C        0.832980134   0.671010904  -0.001886053
C        0.083650957   0.918649744   0.012524890
C        0.335626332   0.918562326   0.011562910
C        0.587993193   0.928922436  -0.011174392
C        0.841209383   0.928467845  -0.010010778
O        0.526941496   0.680073889   0.158217261
O        0.380486625   0.674731815   0.163842853
H        0.500566630   0.573575530   0.175119468
K_POINTS crystal_b 
4
0.0000000000    0.0000000000    0.0000000000 17
0.0000000000    0.5000000000    0.0000000000 10
0.3333333333    0.3333333333    0.0000000000 20
0.0000000000    0.0000000000    0.0000000000 1

