 &CONTROL
                 calculation = 'bands' ,
                      outdir = './tmp/' ,
                  pseudo_dir = '/home/deleted/pseudo_psl' ,
                      prefix = 'GBr_ip' ,
                   verbosity = 'high' ,
               etot_conv_thr = 1.0D-5 ,
               forc_conv_thr = 4.0D-4 ,
                       nstep = 1000 ,
                    dipfield = .true. ,
 /
 &SYSTEM
                       ibrav = 4,
                           A = 9.88 ,
                           C = 15 ,
                         nat = 34,
                        ntyp = 4,
                     ecutwfc = 40.424239707 ,
                     ecutrho = 404.24239707 ,
                 occupations = 'tetrahedra' ,
                     degauss = 0.01 ,
				   input_dft = 'vdW-DF' ,
    nspin = 2 ,
    starting_magnetization(1) = 0.5,
    starting_magnetization(2) = 0.5,
    starting_magnetization(3) = 0.5,
 /
 &ELECTRONS
            electron_maxstep = 50001,
                    conv_thr = 1.0D-6 ,
                 mixing_mode = 'local-TF' ,
                 mixing_beta = 0.5 ,
 /
ATOMIC_SPECIES
    C   12.01100  C.revpbe-n-kjpaw_psl.0.1.UPF 
   Br   79.90350  Br.revpbe-n-kjpaw_psl.0.2.UPF 
    O   15.99940  O.revpbe-n-kjpaw_psl.0.1.UPF 
    H   1.008000  H.revpbe-kjpaw_psl.0.1.UPF
ATOMIC_POSITIONS (crystal)
C       -0.001547419   0.009887926   0.002534584
C        0.251083560   0.016774471   0.004918924
C        0.496904099   0.009950621   0.001167136
C        0.744893984   0.004482729  -0.004337708
C       -0.005344545   0.256857562   0.006715822
C        0.080447152   0.177069899   0.001654648
C        0.248175773   0.264266162  -0.006327810
C        0.333942782   0.182564058  -0.004313331
C        0.501508334   0.264430080  -0.004806800
C        0.582105908   0.177143110   0.002300186
C        0.747636738   0.256915184   0.007732187
C        0.827817848   0.170262345   0.005109471
C       -0.002431748   0.509497727   0.017456765
C        0.075340318   0.423616188   0.011017521
C        0.238064027   0.508599276  -0.001335971
C        0.314994981   0.427528135  -0.014819391
C        0.597947507   0.427906703  -0.010732092
C        0.755574026   0.508639274   0.003558379
C        0.833671350   0.423478151   0.013460289
C        0.003737380   0.763587853   0.013277198
C        0.081622997   0.677571506   0.017265104
C        0.245234201   0.763475722   0.010507279
C        0.323014281   0.678536203  -0.001773856
C        0.480880840   0.759566735  -0.015717777
Br       0.540177182   0.593365690  -0.038291522
C        0.763630084   0.759196974  -0.010901502
C        0.840523848   0.678493686   0.003435222
C        0.084274433   0.930154534   0.007675398
C        0.331329468   0.930189057   0.006197340
C        0.577408863   0.922712847  -0.006763498
C        0.830585635   0.922620428  -0.004724956
O        0.535089363   0.570228510   0.157972020
O        0.518166647   0.691075043   0.196760568
H        0.419150416   0.634056715   0.229563908
K_POINTS automatic 
  20 20 1   0 0 0 

