 &CONTROL
                 calculation = 'bands' ,
                      outdir = './tmp/' ,
                  pseudo_dir = '/home/deleted/pseudo_psl' ,
                      prefix = 'B1_ipH' ,
                    dipfield = .true. ,
                   verbosity = 'high',
                       nstep = 1000,
               forc_conv_thr = 4.0D-4,
               etot_conv_thr = 1.0D-5
 /
 &SYSTEM
                       ibrav = 4,
                           A = 9.88 ,
                           C = 15 ,
                         nat = 32, 
                        ntyp = 2,
                     ecutwfc = 40.424239707 ,
                     ecutrho = 404.24239707 ,
                 occupations = 'tetrahedra' ,
                     degauss = 0.01 ,
				   input_dft = 'vdW-DF' ,
    nspin = 2 ,
    starting_magnetization(1) = 0.5,
	starting_magnetization(2) = 0.5,
 /
 &ELECTRONS
            electron_maxstep = 50001,
                    conv_thr = 1.0D-6 ,
                 mixing_mode = 'local-TF' ,
                 mixing_beta = 0.5 ,
 /
ATOMIC_SPECIES
    C   12.01100  C.revpbe-n-kjpaw_psl.0.1.UPF
    O   15.99940  O.revpbe-n-kjpaw_psl.0.1.UPF 
ATOMIC_POSITIONS crystal 
C       -0.003332229  -0.006570317  -0.006096480
C        0.243296231  -0.013435735  -0.000016258
C        0.496787970  -0.006554729   0.006098967
C        0.748005570  -0.004001959   0.000012252
C       -0.000455411   0.244682955  -0.001198586
C        0.081616845   0.160329786  -0.000607763
C        0.249423686   0.241258205   0.000364050
C        0.325643451   0.151264239  -0.000016118
C        0.491853731   0.241262833  -0.000397628
C        0.578734593   0.160340024   0.000582100
C        0.745160241   0.244685737   0.001156895
C        0.831353660   0.162694319  -0.000014189
C       -0.004075926   0.491823098  -0.000032636
C        0.086171021   0.410376062   0.000912503
C        0.261399290   0.493161151   0.006676448
C        0.344191374   0.403715606   0.002552459
C        0.559546717   0.403721955  -0.002585911
C        0.731782408   0.493159400  -0.006715745
C        0.824225137   0.410376716  -0.000970209
C       -0.007689295   0.738891637  -0.006795114
C        0.078690307   0.657358054  -0.000027580
C        0.246604362   0.738887690   0.006761073
C        0.332256563   0.658283161   0.016247299
C        0.497449842   0.750388281   0.043549653
O        0.636861060   0.695186159  -0.093310753
O        0.558174862   0.695336193   0.093573246
C        0.752879958   0.750353382  -0.043458804
C        0.826046995   0.658291589  -0.016264121
C        0.077142329   0.905863953  -0.005987843
C        0.328743062   0.905867920   0.005968551
C        0.582637343   0.914846820   0.012983426
C        0.832207576   0.914822486  -0.012943183
K_POINTS crystal_b 
4
0.0000000000    0.0000000000    0.0000000000 17
0.0000000000    0.5000000000    0.0000000000 10
0.3333333333    0.3333333333    0.0000000000 20
0.0000000000    0.0000000000    0.0000000000 1

