 &CONTROL
                 calculation = 'nscf' ,
                      outdir = './tmp/' ,
                  pseudo_dir = '/home/deleted/pseudo_psl' ,
                      prefix = 'GI_op' ,
                   verbosity = 'high' ,
               etot_conv_thr = 1.0D-5 ,
               forc_conv_thr = 4.0D-4 ,
                       nstep = 1000 ,
                    dipfield = .true. ,
 /
 &SYSTEM
                       ibrav = 4,
                           A = 9.88 ,
                           C = 15 ,
                         nat = 32,
                        ntyp = 3,
                     ecutwfc = 40.424239707 ,
                     ecutrho = 404.24239707 ,
                 occupations = 'tetrahedra' ,
                     degauss = 0.01 ,
				   input_dft = 'vdW-DF' ,
 /
 &ELECTRONS
            electron_maxstep = 50001,
                    conv_thr = 1.0D-6 ,
                 mixing_mode = 'local-TF' ,
                 mixing_beta = 0.5 ,
 /
ATOMIC_SPECIES
    C   12.01100  C.revpbe-n-kjpaw_psl.0.1.UPF 
    I  126.90400  I.revpbe-n-kjpaw_psl.0.2.UPF 
    O   15.99940  O.revpbe-n-kjpaw_psl.0.1.UPF 
ATOMIC_POSITIONS crystal 
C       -0.001780692  -0.000851942  -0.003011423
C        0.244394920  -0.011210161  -0.002922056
C        0.500928750  -0.000851942  -0.003011423
C        0.757252309   0.014504616  -0.003052655
C        0.007281407   0.255802981  -0.002968082
C        0.084587595   0.166399136  -0.002802620
C        0.251544859   0.243101777  -0.002836118
C        0.325506898   0.151013799  -0.002734475
C        0.491556918   0.243101777  -0.002836118
C        0.581811540   0.166399136  -0.002802620
C        0.748521574   0.255802981  -0.002968082
C        0.838358045   0.176716091  -0.002874883
C        0.000582188   0.501164377  -0.003631828
C        0.095771427   0.420543331  -0.003455790
C        0.273115787   0.498294023  -0.003788197
C        0.351427631   0.405121800  -0.003321187
C        0.553694169   0.405121800  -0.003321187
C        0.725178235   0.498294023  -0.003788197
C        0.824771902   0.420543331  -0.003455790
C       -0.013079075   0.744851211  -0.003678962
C        0.082103137   0.664206273  -0.003723399
C        0.257930287   0.744851211  -0.003678962
C        0.357354244   0.667043967  -0.004045102
C        0.528930703   0.760371617  -0.003795844
I        0.607143888   0.714287775   0.224968002
C        0.731440913   0.760371617  -0.003795844
C        0.809689722   0.667043967  -0.004045102
C        0.075441500   0.909668725  -0.003168521
C        0.334227224   0.909668725  -0.003168521
C        0.591221401   0.922499268  -0.003328986
C        0.831277867   0.922499268  -0.003328986
O        0.572208208   0.644416416   0.347686149
K_POINTS automatic 
  20 20 1   0 0 0 

