 &CONTROL
                 calculation = 'relax' ,
                      outdir = './tmp/' ,
                  pseudo_dir = '/home/deleted/pseudo_psl' ,
                      prefix = 'GI_op' ,
                   verbosity = 'high' ,
               etot_conv_thr = 1.0D-5 ,
               forc_conv_thr = 4.0D-4 ,
                       nstep = 1000 ,
                    dipfield = .true. ,
 /
 &SYSTEM
                       ibrav = 4,
                           A = 9.88 ,
                           C = 15 ,
                         nat = 32,
                        ntyp = 3,
                     ecutwfc = 40.424239707 ,
                     ecutrho = 404.24239707 ,
                 occupations = 'smearing' ,
                     degauss = 0.01 ,
				   input_dft = 'vdW-DF' ,
    nspin = 2 ,
    starting_magnetization(1) = 0.5,
    starting_magnetization(2) = 0.5,
    starting_magnetization(3) = 0.5,
 /
 &ELECTRONS
            electron_maxstep = 50001,
                    conv_thr = 1.0D-6 ,
                 mixing_mode = 'local-TF' ,
                 mixing_beta = 0.5 ,
 /
 &IONS
                ion_dynamics = 'bfgs' ,
 /
ATOMIC_SPECIES
    C   12.01100  C.revpbe-n-kjpaw_psl.0.1.UPF 
    I  126.90400  I.revpbe-n-kjpaw_psl.0.2.UPF 
    O   15.99940  O.revpbe-n-kjpaw_psl.0.1.UPF 
ATOMIC_POSITIONS crystal 
C       -0.001600742  -0.000498576  -0.000173627
C        0.244524067  -0.010951867  -0.000028917
C        0.501102166  -0.000498576  -0.000173627
C        0.757117342   0.014234683  -0.000756126
C        0.007157855   0.255996365  -0.001298807
C        0.084799417   0.166734332  -0.000323270
C        0.251819711   0.243611346  -0.000275171
C        0.325887613   0.151775228   0.000310312
C        0.491791635   0.243611346  -0.000275171
C        0.581934914   0.166734332  -0.000323270
C        0.748838510   0.255996365  -0.001298807
C        0.838555222   0.177110446  -0.001060702
C        0.000602041   0.501204083  -0.002875981
C        0.095694593   0.420898490  -0.002540672
C        0.273341468   0.498915258  -0.003009417
C        0.352068189   0.405977564  -0.001601016
C        0.553909375   0.405977564  -0.001601016
C        0.725573790   0.498915258  -0.003009417
C        0.825203895   0.420898490  -0.002540672
C       -0.012722116   0.745138315  -0.002235565
C        0.082436973   0.664873946  -0.002739439
C        0.257860431   0.745138315  -0.002235565
C        0.356998146   0.667171615  -0.002947933
C        0.528767954   0.760256577  -0.000833058
I        0.587062150   0.674124300   0.206646525
C        0.731488622   0.760256577  -0.000833058
C        0.810173468   0.667171615  -0.002947933
C        0.075872151   0.910134967  -0.000606239
C        0.334262815   0.910134967  -0.000606239
C        0.591360302   0.922811674  -0.000569728
C        0.831451372   0.922811674  -0.000569728
O        0.528767954   0.760256577   0.099166942
K_POINTS automatic 
  4 4 1   0 0 0 

