 &CONTROL
                 calculation = 'scf' ,
                      outdir = './tmp_subs/' ,
                  pseudo_dir = '/home/deleted/pseudo_psl' ,
                      prefix = 'GI_ip_subs' ,
                   verbosity = 'high' ,
               etot_conv_thr = 1.0D-5 ,
               forc_conv_thr = 4.0D-4 ,
                       nstep = 1000 ,
                    dipfield = .true. ,
 /
 &SYSTEM
                       ibrav = 4,
                           A = 9.88 ,
                           C = 15 ,
                         nat = 31,
                        ntyp = 2,
                     ecutwfc = 40.424239707 ,
                     ecutrho = 404.24239707 ,
                 occupations = 'smearing' ,
                     degauss = 0.01 ,
				   input_dft = 'vdW-DF' ,
 /
 &ELECTRONS
            electron_maxstep = 50001,
                    conv_thr = 1.0D-6 ,
                 mixing_mode = 'local-TF' ,
                 mixing_beta = 0.5 ,
 /
ATOMIC_SPECIES
    C   12.01100  C.revpbe-n-kjpaw_psl.0.1.UPF 
    I  126.90400  I.revpbe-n-kjpaw_psl.0.2.UPF 
ATOMIC_POSITIONS crystal 
C        0.005901133   0.009958529   0.004692092
C        0.258584262   0.017168524   0.008852692
C        0.504057397   0.009958529   0.004692092
C        0.752253296   0.004506594  -0.004942898
C        0.001729476   0.256626648   0.012155728
C        0.087635225   0.177032056   0.005217080
C        0.254643177   0.263808890  -0.005411378
C        0.341195153   0.182390308  -0.004026705
C        0.509165713   0.263808890  -0.005411378
C        0.589396830   0.177032056   0.005217080
C        0.754897171   0.256626648   0.012155728
C        0.834887048   0.169774096   0.008698941
C        0.004791142   0.509582283   0.026937099
C        0.082503506   0.423419817   0.019405668
C        0.244300067   0.508509842   0.003793361
C        0.320016845   0.426982989  -0.014450375
C        0.606966143   0.426982989  -0.014450375
C        0.764209775   0.508509842   0.003793361
C        0.840916311   0.423419817   0.019405668
C        0.011008876   0.763673492   0.019070012
C        0.088780618   0.677561236   0.027026122
C        0.252664616   0.763673492   0.019070012
C        0.329253824   0.678845686   0.002825707
C        0.486053778   0.760519003  -0.017212366
I        0.546697029   0.593394058  -0.061436213
C        0.774465225   0.760519003  -0.017212366
C        0.849591862   0.678845686   0.002825707
C        0.091747641   0.930418124   0.011900698
C        0.338670483   0.930418124   0.011900698
C        0.584259718   0.923349878  -0.007105200
C        0.839090159   0.923349878  -0.007105200
K_POINTS automatic 
  16 16 1   0 0 0 

