 &CONTROL
                 calculation = 'scf' ,
                      outdir = './tmp/' ,
                  pseudo_dir = '/home/deleted/pseudo_psl' ,
                      prefix = 'GI_ip' ,
                   verbosity = 'high' ,
               etot_conv_thr = 1.0D-5 ,
               forc_conv_thr = 4.0D-4 ,
                       nstep = 1000 ,
                    dipfield = .true. ,
 /
 &SYSTEM
                       ibrav = 4,
                           A = 9.88 ,
                           C = 15 ,
                         nat = 32,
                        ntyp = 3,
                     ecutwfc = 40.424239707 ,
                     ecutrho = 404.24239707 ,
                 occupations = 'smearing' ,
                     degauss = 0.01 ,
				   input_dft = 'vdW-DF' ,
    nspin = 2 ,
    starting_magnetization(1) = 0.5,
    starting_magnetization(2) = 0.5,
    starting_magnetization(3) = 0.5,
 /
 &ELECTRONS
            electron_maxstep = 50001,
                    conv_thr = 1.0D-6 ,
                 mixing_mode = 'local-TF' ,
                 mixing_beta = 0.5 ,
 /
ATOMIC_SPECIES
    C   12.01100  C.revpbe-n-kjpaw_psl.0.1.UPF 
    I  126.90400  I.revpbe-n-kjpaw_psl.0.2.UPF 
    O   15.99940  O.revpbe-n-kjpaw_psl.0.1.UPF 
ATOMIC_POSITIONS (crystal)
C       -0.001959502   0.002191958  -0.002413829
C        0.252440419   0.008504950   0.000168179
C        0.499884583   0.006316701   0.009858398
C        0.745433429  -0.000926152   0.004614324
C       -0.003885865   0.251100784   0.007726751
C        0.079550039   0.168704514   0.003406057
C        0.245970757   0.254214811  -0.007638391
C        0.333959915   0.174601353  -0.011651189
C        0.501787159   0.258299595  -0.015482523
C        0.583291932   0.172646720  -0.001849225
C        0.748957140   0.252820019   0.003463094
C        0.829629490   0.166213220   0.005461760
C       -0.000897443   0.504131848   0.013578041
C        0.077542712   0.417719510   0.016513286
C        0.243655918   0.503192110   0.015809321
C        0.312203535   0.416971201  -0.013105297
C        0.597583871   0.422116787  -0.025958591
C        0.757257965   0.503875921  -0.015107354
C        0.835039617   0.419611852   0.002787996
C        0.004967464   0.756731712   0.000874334
C        0.084211304   0.671485693   0.010982243
C        0.249578703   0.756223519   0.016900775
C        0.328581844   0.671035036   0.027318482
C        0.493109240   0.760805927   0.056627587
I        0.524753150   0.578657802  -0.082631793
C        0.766616815   0.756609691  -0.032935953
C        0.842409306   0.673761500  -0.016515493
C        0.085010931   0.922763158  -0.000840831
C        0.333057906   0.924091758   0.011028239
C        0.581498438   0.922864397   0.020434345
C        0.830749056   0.916268809  -0.010607022
O        0.553229151   0.708207938   0.109184279
K_POINTS automatic 
  16 16 1   0 0 0 

