 &CONTROL
                 calculation = 'nscf' ,
                      outdir = './tmp/' ,
                  pseudo_dir = '/home/deleted/pseudo_psl' ,
                      prefix = 'GBr_op' ,
                   verbosity = 'high' ,
               etot_conv_thr = 1.0D-5 ,
               forc_conv_thr = 4.0D-4 ,
                       nstep = 1000 ,
                    dipfield = .true. ,
 /
 &SYSTEM
                       ibrav = 4,
                           A = 9.88 ,
                           C = 15 ,
                         nat = 33,
                        ntyp = 3,
                     ecutwfc = 40.424239707 ,
                     ecutrho = 404.24239707 ,
                 occupations = 'tetrahedra' ,
                     degauss = 0.01 ,
				   input_dft = 'vdW-DF' ,
 /
 &ELECTRONS
            electron_maxstep = 50001,
                    conv_thr = 1.0D-6 ,
                 mixing_mode = 'local-TF' ,
                 mixing_beta = 0.5 ,
 /
ATOMIC_SPECIES
    C   12.01100  C.revpbe-n-kjpaw_psl.0.1.UPF 
   Br   79.90350  Br.revpbe-n-kjpaw_psl.0.2.UPF 
    O   15.99940  O.revpbe-n-kjpaw_psl.0.1.UPF 
ATOMIC_POSITIONS crystal 
C       -0.009798571   0.014226196  -0.006385949
C        0.235750412   0.003471666  -0.004711549
C        0.489730132   0.015530263   0.003060112
C        0.750534851   0.029265144   0.001565793
C       -0.002968376   0.269187372  -0.009254812
C        0.075582093   0.181070004  -0.008377097
C        0.243233191   0.258958314  -0.009061003
C        0.316939818   0.166212556  -0.006794941
C        0.481755047   0.257961471  -0.007010408
C        0.571332028   0.180902978  -0.003111920
C        0.738899307   0.269923921  -0.005017719
C        0.828905923   0.190188890  -0.004603613
C       -0.009691214   0.514331142  -0.009456293
C        0.083461075   0.433642681  -0.010789326
C        0.261146851   0.512683967  -0.009817203
C        0.343062789   0.420119414  -0.009764670
C        0.544345307   0.420921970  -0.009150627
C        0.714836918   0.512311829  -0.009020536
C        0.814252992   0.433269742  -0.008669129
C       -0.020955519   0.759349802  -0.006232704
C        0.072578554   0.677922923  -0.006893347
C        0.246619839   0.756953549  -0.003425253
C        0.338430479   0.676630540  -0.003670591
C        0.517883264   0.769136326   0.016293796
Br       0.658774178   0.551152143   0.231237950
C        0.725997117   0.773495517  -0.004028754
C        0.802191696   0.681562294  -0.007063095
C        0.066912196   0.923924844  -0.005944776
C        0.325183627   0.925055805  -0.000674579
C        0.583221431   0.939866319   0.016357258
C        0.823051014   0.937150500  -0.003372916
O        0.803480467   0.513550718   0.184308701
O        0.544637266   0.839189756   0.101620927
K_POINTS automatic 
  20 20 1   0 0 0 

