&INPUTPP
          outdir = './tmp/'
          prefix = 'B1_ipV'
          filplot = 'B1_ipV-chg-up'
          plot_num = 0,
          spin_component = 1
/
&PLOT
          nfile = 1
          filepp(1) = 'B1_ipV-chg-up'
          weight(1) = 1.0,
          fileout = 'B1_ipV-chg-up.xsf'
          iflag = 3
          output_format = 5
/
