 &CONTROL
                 calculation = 'nscf' ,
                      outdir = './tmp/' ,
                  pseudo_dir = '/home/deleted/pseudo_psl' ,
                      prefix = 'GCl_op' ,
                   verbosity = 'high' ,
               etot_conv_thr = 1.0D-5 ,
               forc_conv_thr = 4.0D-4 ,
                       nstep = 1000 ,
                    dipfield = .true. ,
 /
 &SYSTEM
                       ibrav = 4,
                           A = 9.88 ,
                           C = 15 ,
                         nat = 34,
                        ntyp = 4,
                     ecutwfc = 40.424239707 ,
                     ecutrho = 404.24239707 ,
                 occupations = 'tetrahedra' ,
                     degauss = 0.01 ,
				   input_dft = 'vdW-DF' ,
 /
 &ELECTRONS
            electron_maxstep = 50001,
                    conv_thr = 1.0D-6 ,
                 mixing_mode = 'local-TF' ,
                 mixing_beta = 0.5 ,
 /
ATOMIC_SPECIES
    C   12.01100  C.revpbe-n-kjpaw_psl.0.1.UPF 
   Cl   35.45200  Cl.revpbe-n-kjpaw_psl.0.3.0.UPF 
    O   15.99940  O.revpbe-n-kjpaw_psl.0.1.UPF 
    H   1.008000  H.revpbe-kjpaw_psl.0.1.UPF
ATOMIC_POSITIONS crystal 
C        0.015338719   0.028304643   0.003735901
C        0.260241852   0.020708873  -0.004692406
C        0.512812876   0.028409267   0.003953760
C        0.766422874   0.033100809   0.022780221
C        0.016169859   0.278391655   0.004155158
C        0.098200978   0.194378431   0.000191455
C        0.265560793   0.274603379  -0.003098885
C        0.342273621   0.184873717  -0.000061994
C        0.508906416   0.274768776  -0.003281350
C        0.595964799   0.194474150   0.000112601
C        0.761890574   0.278421364   0.004130376
C        0.848169004   0.196646062   0.010058774
C        0.012718331   0.525763644   0.002717319
C        0.102177257   0.444055004   0.003392106
C        0.275115214   0.525009891   0.005338501
C        0.357128258   0.435820513   0.000135421
C        0.578658582   0.435854357  -0.000953718
C        0.749524840   0.524936098   0.005071483
C        0.841515884   0.444004523   0.003414797
C        0.010523885   0.773802951   0.000057169
C        0.095291366   0.690735360  -0.001759088
C        0.263136394   0.773853582   0.000249402
C        0.349200587   0.692400971   0.012347472
C        0.507250102   0.788522798   0.032980620
Cl       0.604831194   0.709225549   0.095508250
C        0.781080976   0.788457942   0.032436314
C        0.843025093   0.692338859   0.011945577
C        0.094348224   0.940122547  -0.001393081
C        0.345621213   0.940176010  -0.001239685
C        0.598006667   0.950276250   0.021845690
C        0.851908404   0.950171086   0.021464684
O        0.344681563   0.184341112   0.156880440
O        0.414872333   0.343655576   0.184354804
H        0.323650853   0.355440235   0.196520856
K_POINTS automatic  
  20 20 1   0 0 0 

