 &CONTROL
                 calculation = 'relax' ,
                      outdir = './tmp/' ,
                  pseudo_dir = '/home/deleted/pseudo_psl' ,
                      prefix = 'GBr_ip' ,
                   verbosity = 'high' ,
               etot_conv_thr = 1.0D-5 ,
               forc_conv_thr = 4.0D-4 ,
                       nstep = 1000 ,
                    dipfield = .true. ,
 /
 &SYSTEM
                       ibrav = 4,
                           A = 9.88 ,
                           C = 15 ,
                         nat = 34,
                        ntyp = 4,
                     ecutwfc = 40.424239707 ,
                     ecutrho = 404.24239707 ,
                 occupations = 'smearing' ,
                     degauss = 0.01 ,
				   input_dft = 'vdW-DF' ,
 /
 &ELECTRONS
            electron_maxstep = 50001,
                    conv_thr = 1.0D-6 ,
                 mixing_mode = 'local-TF' ,
                 mixing_beta = 0.5 ,
 /
 &IONS
                ion_dynamics = 'bfgs' ,
 /
ATOMIC_SPECIES
    C   12.01100  C.revpbe-n-kjpaw_psl.0.1.UPF 
   Br   79.90350  Br.revpbe-n-kjpaw_psl.0.2.UPF 
    O   15.99940  O.revpbe-n-kjpaw_psl.0.1.UPF 
    H   1.008000  H.revpbe-kjpaw_psl.0.1.UPF
ATOMIC_POSITIONS crystal 
C        0.001484905   0.001320197   0.003352935
C        0.254053111   0.008106222   0.006245967
C        0.499835293   0.001320197   0.003352935
C        0.747974680  -0.004050640  -0.002654304
C       -0.002361858   0.248243628   0.007917227
C        0.083331409   0.168346586   0.003195959
C        0.251025839   0.255505815  -0.003594705
C        0.336906207   0.173812415  -0.002414899
C        0.504479977   0.255505815  -0.003594705
C        0.585015176   0.168346586   0.003195959
C        0.750605485   0.248243628   0.007917227
C        0.830830264   0.161660528   0.005944104
C        0.000435009   0.500870020   0.017527102
C        0.078098330   0.414801862   0.012681867
C        0.241263984   0.499806280   0.003201996
C        0.318240876   0.418793148  -0.009535965
C        0.600552270   0.418793148  -0.009535965
C        0.758542296   0.499806280   0.003201996
C        0.836703531   0.414801862   0.012681867
C        0.006693555   0.754910387   0.013060338
C        0.084432658   0.668865317   0.017770900
C        0.248216834   0.754910387   0.013060338
C        0.326266315   0.669813908   0.003356766
C        0.484318414   0.750743698  -0.009544311
Br       0.542656357   0.585312714  -0.033425823
C        0.766425283   0.750743698  -0.009544311
C        0.843547593   0.669813908   0.003356766
C        0.087219595   0.921493711   0.008259598
C        0.334274115   0.921493711   0.008259598
C        0.580387238   0.914156338  -0.003691074
C        0.833769099   0.914156338  -0.003691074
O        0.544908760   0.589817519   0.154401010
O        0.473200729   0.446401458   0.179284681
H        0.598497463   0.473388129   0.166842845
K_POINTS automatic 
  4 4 1   0 0 0 

