 &CONTROL
                 calculation = 'bands' ,
                      outdir = './tmp/' ,
                  pseudo_dir = '/home/deleted/pseudo_psl' ,
                      prefix = 'GF_ip' ,
                   verbosity = 'high' ,
               etot_conv_thr = 1.0D-5 ,
               forc_conv_thr = 4.0D-4 ,
                       nstep = 1000 ,
                    dipfield = .true. ,
 /
 &SYSTEM
                       ibrav = 4,
                           A = 9.88 ,
                           C = 15 ,
                         nat = 34,
                        ntyp = 4,
                     ecutwfc = 40.424239707 ,
                     ecutrho = 404.24239707 ,
                 occupations = 'tetrahedra' ,
                     degauss = 0.01 ,
				   input_dft = 'vdW-DF' ,
    nspin = 2 ,
    starting_magnetization(1) = 0.5,
    starting_magnetization(2) = 0.5,
    starting_magnetization(3) = 0.5,
 /
 &ELECTRONS
            electron_maxstep = 50001,
                    conv_thr = 1.0D-6 ,
                 mixing_mode = 'local-TF' ,
                 mixing_beta = 0.5 ,
 /
ATOMIC_SPECIES
    C   12.01100  C.revpbe-n-kjpaw_psl.0.1.UPF 
    F   18.99800  F.revpbe-n-kjpaw_psl.0.1.UPF 
    O   15.99940  O.revpbe-n-kjpaw_psl.0.1.UPF 
    H   1.008000  H.revpbe-kjpaw_psl.0.1.UPF
ATOMIC_POSITIONS (crystal)
C        0.010267255  -0.020518817   0.015297771
C        0.256026983  -0.026249209   0.014560222
C        0.507109508  -0.024797941   0.012273274
C        0.762162983  -0.019509282   0.007133425
C        0.013203165   0.230151446   0.001378291
C        0.094463723   0.145254318   0.005583265
C        0.261684428   0.226267803   0.005925708
C        0.338311091   0.138010509   0.012940924
C        0.504442575   0.229053220   0.016329450
C        0.594146679   0.145393775   0.039627975
C        0.762151502   0.230932044   0.008412017
C        0.844994819   0.148386772   0.003743063
C        0.010226194   0.477343615   0.000115348
C        0.099398779   0.395648323  -0.002553214
C        0.274048256   0.477250456  -0.007662724
C        0.354307100   0.389451391  -0.000068800
C        0.573675283   0.387480454   0.010138459
C        0.747750768   0.478903232   0.013004798
C        0.839049118   0.394591642   0.004529583
C        0.006741469   0.723822372   0.015267698
C        0.092061383   0.643179540   0.004859851
C        0.260116675   0.726184493   0.000876443
C        0.346521775   0.646431353  -0.013865684
C        0.505926278   0.741624310  -0.030240076
F        0.581322305   0.675758297  -0.073070483
C        0.767249829   0.734885813   0.052877796
C        0.839663111   0.641528714   0.023526684
C        0.090514902   0.892272710   0.017264207
C        0.342324071   0.891585377   0.008964837
C        0.592381073   0.898863727  -0.004059763
C        0.844087291   0.900713577   0.021306394
O        0.657397615   0.681883637   0.106218049
O        0.612487762   1.150161143   0.139211202
H        0.507664273   1.096337241   0.165011548
K_POINTS automatic 
  20 20 1   0 0 0 

