 &CONTROL
                 calculation = 'bands' ,
                      outdir = './tmp/' ,
                  pseudo_dir = '/home/deleted/pseudo_psl' ,
                      prefix = 'MVG_tv' ,
                    dipfield = .true. ,
                   verbosity = 'high',
                       nstep = 1000,
               forc_conv_thr = 4.0D-4,
               etot_conv_thr = 1.0D-5
 /
 &SYSTEM
                       ibrav = 4,
                           A = 9.88 ,
                           C = 15 ,
                         nat = 33,
                        ntyp = 2,
                     ecutwfc = 40.424239707 ,
                     ecutrho = 404.24239707 ,
                 occupations = 'tetrahedra' ,
                     degauss = 0.01 ,
				   input_dft = 'vdW-DF' ,
    nspin = 2 ,
    starting_magnetization(1) = 0.5,
	starting_magnetization(2) = 0.5,
 /
 &ELECTRONS
            electron_maxstep = 50001,
                    conv_thr = 1.0D-6 ,
                 mixing_mode = 'local-TF' ,
                 mixing_beta = 0.5 ,
 /
 &IONS
                ion_dynamics = 'bfgs' ,
 /
ATOMIC_SPECIES
    C   12.01100  C.revpbe-n-kjpaw_psl.0.1.UPF 
    O   15.99940  O.revpbe-n-kjpaw_psl.0.1.UPF 
ATOMIC_POSITIONS crystal 
C        0.001451951   0.002975581  -0.006698701
C        0.252505407   0.005010815  -0.003879056
C        0.501523631   0.002975581  -0.006698701
C        0.751401814   0.002803626  -0.008355611
C        0.001539383   0.254488811  -0.005190577
C        0.085854804   0.169931371  -0.000188161
C        0.248369023   0.250389518   0.016942858
C        0.335732205   0.171464410   0.012675219
C        0.502020495   0.250389518   0.016942858
C        0.584076566   0.169931371  -0.000188161
C        0.752949429   0.254488811  -0.005190577
C        0.835572359   0.171144718  -0.007692469
C        0.002458399   0.504916797  -0.016497216
C        0.084591475   0.421505714  -0.009672348
C        0.248691981   0.506520102   0.001958197
C        0.307749278   0.414638844   0.050177793
C        0.606889565   0.414638844   0.050177793
C        0.757828121   0.506520102   0.001958197
C        0.836914238   0.421505714  -0.009672348
C        0.002021784   0.753970642  -0.013273608
C        0.085462996   0.670925993  -0.015281096
C        0.251948857   0.753970642  -0.013273608
C        0.334113337   0.669801555  -0.007969559
C        0.503317308   0.751173961  -0.009737182
C        0.584252534   0.668505070  -0.015122061
C        0.747856652   0.751173961  -0.009737182
C        0.835688218   0.669801555  -0.007969559
C        0.085846044   0.921250894  -0.008967729
C        0.335404849   0.921250894  -0.008967729
C        0.585458043   0.919296564  -0.008739647
C        0.833838520   0.919296564  -0.008739647
O        0.600660539   0.450004064   0.128434810
O        0.349343525   0.450004064   0.128434810
K_POINTS crystal_b 
4
0.0000000000    0.0000000000    0.0000000000 17
0.0000000000    0.5000000000    0.0000000000 10
0.3333333333    0.3333333333    0.0000000000 20
0.0000000000    0.0000000000    0.0000000000 1

