 &CONTROL
                 calculation = 'relax' ,
                      outdir = './tmp/' ,
                  pseudo_dir = '/home/deleted/pseudo_psl' ,
                      prefix = 'GI_op' ,
                   verbosity = 'high' ,
               etot_conv_thr = 1.0D-5 ,
               forc_conv_thr = 4.0D-4 ,
                       nstep = 1000 ,
                    dipfield = .true. ,
 /
 &SYSTEM
                       ibrav = 4,
                           A = 9.88 ,
                           C = 15 ,
                         nat = 34,
                        ntyp = 4,
                     ecutwfc = 40.424239707 ,
                     ecutrho = 404.24239707 ,
                 occupations = 'smearing' ,
                     degauss = 0.01 ,
				   input_dft = 'vdW-DF' ,
 /
 &ELECTRONS
            electron_maxstep = 50001,
                    conv_thr = 1.0D-6 ,
                 mixing_mode = 'local-TF' ,
                 mixing_beta = 0.5 ,
 /
 &IONS
                ion_dynamics = 'bfgs' ,
 /
ATOMIC_SPECIES
    C   12.01100  C.revpbe-n-kjpaw_psl.0.1.UPF 
    I  126.90400  I.revpbe-n-kjpaw_psl.0.2.UPF 
    O   15.99940  O.revpbe-n-kjpaw_psl.0.1.UPF 
    H   1.008000  H.revpbe-kjpaw_psl.0.1.UPF
ATOMIC_POSITIONS crystal 
C        0.002139142  -0.001904840  -0.003120642
C        0.248360303  -0.012265859  -0.003132636
C        0.504855465  -0.001992490  -0.003492902
C        0.761036675   0.013211393  -0.003328645
C        0.011128749   0.254706585  -0.003272811
C        0.088490529   0.165305757  -0.003124369
C        0.255453486   0.242040978  -0.003390756
C        0.329510256   0.150078871  -0.003089357
C        0.495502849   0.241962208  -0.003390146
C        0.585720542   0.165186605  -0.003233477
C        0.752492879   0.254660379  -0.003270208
C        0.842259585   0.175566582  -0.003090874
C        0.004503402   0.500065690  -0.004002229
C        0.099611306   0.419518982  -0.003912854
C        0.277096707   0.497338459  -0.004495848
C        0.355193510   0.404133588  -0.004174272
C        0.557791213   0.404089710  -0.004027900
C        0.729100702   0.497284697  -0.004244653
C        0.828816258   0.419474211  -0.003820664
C       -0.008993994   0.743891244  -0.003837391
C        0.086176957   0.663383416  -0.004030463
C        0.261800198   0.743926365  -0.004077461
C        0.361486066   0.666084284  -0.004529701
C        0.532790052   0.759240855  -0.004441540
I        0.524395570   0.569256844   0.235602354
C        0.735351126   0.759220232  -0.004039839
C        0.813469334   0.666074230  -0.004217123
C        0.079487697   0.908666523  -0.003316784
C        0.338116877   0.908645846  -0.003545245
C        0.595071371   0.921297643  -0.003923204
C        0.835161336   0.921323887  -0.003403277
O        0.448805466   0.843805393   0.205861514
O        0.558687625   0.823901556   0.234513953
H        0.528328730   0.830129085   0.123327808
K_POINTS automatic 
  4 4 1   0 0 0 

