 &CONTROL
                 calculation = 'relax' ,
                      outdir = './tmp/' ,
                  pseudo_dir = '/home/deleted/pseudo_psl' ,
                      prefix = 'GBr_op' ,
                   verbosity = 'high' ,
               etot_conv_thr = 1.0D-5 ,
               forc_conv_thr = 4.0D-4 ,
                       nstep = 1000 ,
                    dipfield = .true. ,
 /
 &SYSTEM
                       ibrav = 4,
                           A = 9.88 ,
                           C = 15 ,
                         nat = 34,
                        ntyp = 4,
                     ecutwfc = 40.424239707 ,
                     ecutrho = 404.24239707 ,
                 occupations = 'smearing' ,
                     degauss = 0.01 ,
				   input_dft = 'vdW-DF' ,
 /
 &ELECTRONS
            electron_maxstep = 50001,
                    conv_thr = 1.0D-6 ,
                 mixing_mode = 'local-TF' ,
                 mixing_beta = 0.5 ,
 /
 &IONS
                ion_dynamics = 'bfgs' ,
 /
ATOMIC_SPECIES
    C   12.01100  C.revpbe-n-kjpaw_psl.0.1.UPF 
   Br   79.90350  Br.revpbe-n-kjpaw_psl.0.2.UPF 
    O   15.99940  O.revpbe-n-kjpaw_psl.0.1.UPF 
    H   1.008000  H.revpbe-kjpaw_psl.0.1.UPF
ATOMIC_POSITIONS crystal 
C       -0.000871738  -0.000049750  -0.004665199
C        0.245354867  -0.010330171  -0.003866839
C        0.501877879  -0.000056892  -0.004250879
C        0.758085985   0.015059411  -0.004978682
C        0.008091703   0.256523513  -0.004696465
C        0.085468806   0.167136160  -0.004499202
C        0.252446286   0.243925694  -0.004436200
C        0.326538016   0.152015235  -0.003798742
C        0.492553418   0.243935443  -0.003940230
C        0.582738383   0.167141094  -0.003968516
C        0.749510818   0.256526367  -0.004360721
C        0.839232887   0.177383622  -0.004527727
C        0.001470706   0.501876862  -0.005146132
C        0.096574655   0.421329295  -0.005287822
C        0.274036997   0.499132543  -0.005933073
C        0.352191232   0.406027776  -0.005253299
C        0.554901030   0.406054484  -0.004729007
C        0.726119423   0.499212820  -0.005118678
C        0.825865061   0.421328295  -0.004787181
C       -0.011931870   0.745771946  -0.005003451
C        0.083140198   0.665228632  -0.005116130
C        0.258741055   0.745771999  -0.005149563
C        0.358482597   0.667977331  -0.005988370
C        0.529691209   0.761134145  -0.005983090
Br       0.662354730   0.733674973   0.242583794
C        0.732626671   0.761173602  -0.006028953
C        0.810582816   0.668023134  -0.005629565
C        0.076514127   0.910561427  -0.004382755
C        0.335098395   0.910550741  -0.004275906
C        0.592068249   0.923175479  -0.005086327
C        0.832206143   0.923210466  -0.005465354
O        0.421146418   0.584439842   0.190885364
O        0.313759507   0.508467818   0.246218231
H        0.313544353   0.63006242    0.228723595
K_POINTS automatic 
  4 4 1   0 0 0 

