 &CONTROL
                 calculation = 'nscf' ,
                      outdir = './tmp/' ,
                  pseudo_dir = '/home/deleted/pseudo_psl' ,
                      prefix = 'GCl_op' ,
                   verbosity = 'high' ,
               etot_conv_thr = 1.0D-5 ,
               forc_conv_thr = 4.0D-4 ,
                       nstep = 1000 ,
                    dipfield = .true. ,
 /
 &SYSTEM
                       ibrav = 4,
                           A = 9.88 ,
                           C = 15 ,
                         nat = 34,
                        ntyp = 4,
                     ecutwfc = 40.424239707 ,
                     ecutrho = 404.24239707 ,
                 occupations = 'tetrahedra' ,
                     degauss = 0.01 ,
				   input_dft = 'vdW-DF' ,
 /
 &ELECTRONS
            electron_maxstep = 50001,
                    conv_thr = 1.0D-6 ,
                 mixing_mode = 'local-TF' ,
                 mixing_beta = 0.5 ,
 /
ATOMIC_SPECIES
    C   12.01100  C.revpbe-n-kjpaw_psl.0.1.UPF 
   Cl   35.45200  Cl.revpbe-n-kjpaw_psl.0.3.0.UPF 
    O   15.99940  O.revpbe-n-kjpaw_psl.0.1.UPF 
    H   1.008000  H.revpbe-kjpaw_psl.0.1.UPF
ATOMIC_POSITIONS crystal 
C        0.015525070   0.007015703  -0.003895240
C        0.261638239   0.001357091  -0.011302886
C        0.513232477   0.006876048  -0.002698120
C        0.766824989   0.011636780   0.014142331
C        0.017050505   0.257682570  -0.002508070
C        0.098856999   0.173370709  -0.006859584
C        0.266202895   0.253789754  -0.011142405
C        0.343106316   0.164284447  -0.012929041
C        0.509365041   0.253537303  -0.010600116
C        0.596398040   0.173234679  -0.006291107
C        0.762500708   0.257658838  -0.001860604
C        0.848507760   0.175165076   0.003006359
C        0.013756012   0.505577265  -0.003017805
C        0.103123827   0.423193848  -0.002767338
C        0.276429475   0.504188223  -0.000329250
C        0.357026848   0.415643127  -0.007096238
C        0.580258956   0.415516681  -0.006755270
C        0.749563909   0.504215515  -0.001059706
C        0.841967559   0.423133478  -0.002478322
C        0.010897811   0.753399502  -0.005912077
C        0.096123641   0.670277867  -0.007168745
C        0.264490908   0.753428812  -0.005176802
C        0.351075948   0.672690160   0.007056279
C        0.509016126   0.766924395   0.028224138
Cl       0.599680596   0.685490072   0.094549518
C        0.775824779   0.765566842   0.021478702
C        0.842988017   0.673090238   0.004570055
C        0.094422402   0.919402640  -0.008036213
C        0.346860818   0.919446950  -0.007113436
C        0.598373937   0.928101067   0.014700941
C        0.851152721   0.927562129   0.011757497
O        0.456608957   0.545033611   0.255299397
O        0.399324377   0.611453250   0.188249933
H        0.380684875   0.433454739   0.249751920
K_POINTS automatic  
  20 20 1   0 0 0 

