 &CONTROL
                 calculation = 'relax' ,
                      outdir = './tmp/' ,
                  pseudo_dir = '/home/deleted/pseudo_psl' ,
                      prefix = 'GF_ip' ,
                   verbosity = 'high' ,
               etot_conv_thr = 1.0D-5 ,
               forc_conv_thr = 4.0D-4 ,
                       nstep = 1000 ,
                    dipfield = .true. ,
 /
 &SYSTEM
                       ibrav = 4,
                           A = 9.88 ,
                           C = 15 ,
                         nat = 34,
                        ntyp = 4,
                     ecutwfc = 40.424239707 ,
                     ecutrho = 404.24239707 ,
                 occupations = 'smearing' ,
                     degauss = 0.01 ,
				   input_dft = 'vdW-DF' ,
 /
 &ELECTRONS
            electron_maxstep = 50001,
                    conv_thr = 1.0D-6 ,
                 mixing_mode = 'local-TF' ,
                 mixing_beta = 0.5 ,
 /
 &IONS
                ion_dynamics = 'bfgs' ,
 /
ATOMIC_SPECIES
    C   12.01100  C.revpbe-n-kjpaw_psl.0.1.UPF 
    F   18.99800  F.revpbe-n-kjpaw_psl.0.1.UPF 
    O   15.99940  O.revpbe-n-kjpaw_psl.0.1.UPF 
    H   1.008000  H.revpbe-kjpaw_psl.0.1.UPF
ATOMIC_POSITIONS crystal 
C       -0.028119395  -0.026069239   0.004075490
C        0.220245399  -0.029248427   0.011242112
C        0.471984454  -0.024372876   0.011396816
C        0.720582794  -0.023939212  -0.000341126
C       -0.027674632   0.226050337   0.000134639
C        0.054529538   0.141612552   0.010741463
C        0.223478940   0.223653693   0.010370724
C        0.301839173   0.134893586   0.010320098
C        0.467297225   0.222987992   0.005872258
C        0.553568220   0.141703645   0.004552436
C        0.719623021   0.225748172   0.000814282
C        0.804824510   0.143046309  -0.001742251
C       -0.029962954   0.473683356   0.000992717
C        0.057880085   0.391136411   0.001540052
C        0.231782597   0.474654440   0.009349161
C        0.313231336   0.384833301   0.008121729
C        0.539482319   0.385640572   0.000946784
C        0.708029385   0.473700110  -0.005702866
C        0.799265545   0.391629740  -0.001036139
C       -0.030793095   0.723201008   0.001335540
C        0.053188531   0.639540422   0.005046351
C        0.220073917   0.720962239   0.011967858
C        0.303483703   0.638910427   0.018487552
C        0.468546801   0.731143995   0.047688126
F        0.595254779   0.664330753  -0.073749887
C        0.737580006   0.735491992  -0.031955781
C        0.803283785   0.642340220  -0.012876910
C        0.052666324   0.888753361   0.005760751
C        0.304384991   0.889147438   0.013912212
C        0.558112839   0.896053002   0.014894089
C        0.807678210   0.893949261  -0.010116309
O        0.960063130   1.121295983   0.158729749
O        0.522363863   0.677765479   0.102592435
H        1.023543185   1.147488015   0.214164561
K_POINTS automatic 
  4 4 1   0 0 0 

