 &CONTROL
                 calculation = 'scf' ,
                      outdir = './tmp_subs/' ,
                  pseudo_dir = '/home/deleted/pseudo_psl' ,
                      prefix = 'GF_ip_subs' ,
                   verbosity = 'high' ,
               etot_conv_thr = 1.0D-5 ,
               forc_conv_thr = 4.0D-4 ,
                       nstep = 1000 ,
                    dipfield = .true. ,
 /
 &SYSTEM
                       ibrav = 4,
                           A = 9.88 ,
                           C = 15 ,
                         nat = 31,
                        ntyp = 2,
                     ecutwfc = 40.424239707 ,
                     ecutrho = 404.24239707 ,
                 occupations = 'smearing' ,
                     degauss = 0.01 ,
				   input_dft = 'vdW-DF' ,
 /
 &ELECTRONS
            electron_maxstep = 50001,
                    conv_thr = 1.0D-6 ,
                 mixing_mode = 'local-TF' ,
                 mixing_beta = 0.5 ,
 /
ATOMIC_SPECIES
    C   12.01100  C.revpbe-n-kjpaw_psl.0.1.UPF 
    F   18.99800  F.revpbe-n-kjpaw_psl.0.1.UPF 
ATOMIC_POSITIONS crystal 
C       -0.006987789   0.001738422   0.001580958
C        0.239741918  -0.002973079   0.008535829
C        0.491006029   0.001819346   0.014882932
C        0.741711124   0.003054325   0.006960300
C       -0.005853436   0.252551059   0.004306509
C        0.076393065   0.168466714   0.006284594
C        0.244070207   0.249845590   0.007557737
C        0.321342446   0.160634452   0.007862836
C        0.487275835   0.249289363   0.006433772
C        0.573621116   0.168131461   0.007271690
C        0.739962111   0.252485583   0.006002759
C        0.825327966   0.169530322   0.004864092
C       -0.008906644   0.500450099   0.004662317
C        0.080291070   0.418511905   0.007281377
C        0.254889276   0.501419096   0.015020599
C        0.335912787   0.412165383   0.009460908
C        0.558221896   0.411934328   0.002771186
C        0.727538535   0.500218824  -0.004161403
C        0.819429481   0.418373541   0.002127763
C       -0.010466676   0.749147209  -0.000322859
C        0.074090335   0.666047328   0.005714025
C        0.241459820   0.748512247   0.014380371
C        0.326651382   0.668086378   0.026397275
C        0.486912026   0.762514801   0.053791647
F        0.612304285   0.691356397  -0.068434558
C        0.756657658   0.762341468  -0.029309850
C        0.823006365   0.668521981  -0.012892639
C        0.072808937   0.915168331   0.002694256
C        0.324095503   0.915545566   0.014418038
C        0.577379488   0.922463220   0.025020860
C        0.827079663   0.921568308  -0.007785922
K_POINTS automatic 
  16 16 1   0 0 0 

