 &CONTROL
                 calculation = 'scf' ,
                      outdir = './tmp/' ,
                  pseudo_dir = '/home/deleted/pseudo_psl' ,
                      prefix = 'GF_ip' ,
                   verbosity = 'high' ,
               etot_conv_thr = 1.0D-5 ,
               forc_conv_thr = 4.0D-4 ,
                       nstep = 1000 ,
                    dipfield = .true. ,
 /
 &SYSTEM
                       ibrav = 4,
                           A = 9.88 ,
                           C = 15 ,
                         nat = 34,
                        ntyp = 4,
                     ecutwfc = 40.424239707 ,
                     ecutrho = 404.24239707 ,
                 occupations = 'smearing' ,
                     degauss = 0.01 ,
				   input_dft = 'vdW-DF' ,
 /
 &ELECTRONS
            electron_maxstep = 50001,
                    conv_thr = 1.0D-6 ,
                 mixing_mode = 'local-TF' ,
                 mixing_beta = 0.5 ,
 /
ATOMIC_SPECIES
    C   12.01100  C.revpbe-n-kjpaw_psl.0.1.UPF 
    F   18.99800  F.revpbe-n-kjpaw_psl.0.1.UPF 
    O   15.99940  O.revpbe-n-kjpaw_psl.0.1.UPF 
    H   1.008000  H.revpbe-kjpaw_psl.0.1.UPF
ATOMIC_POSITIONS crystal 
C       -0.034069004  -0.027973013   0.010811378
C        0.215495295  -0.029459546   0.013064560
C        0.466986537  -0.023769569   0.013916154
C        0.716140090  -0.022699166   0.005875246
C       -0.033442366   0.227732031   0.007158563
C        0.049086780   0.142170635   0.038274703
C        0.222420852   0.225895814   0.014935493
C        0.297462672   0.134806327   0.011467782
C        0.462355486   0.223040040   0.004506584
C        0.548562278   0.142020722   0.004232243
C        0.714713180   0.226960084   0.000112183
C        0.801183342   0.145200707   0.002507386
C       -0.035132544   0.474135378  -0.001262457
C        0.053285942   0.391385250   0.003229309
C        0.228882687   0.475706788   0.011621281
C        0.311591681   0.384330065   0.008775898
C        0.532946346   0.386227526  -0.001495911
C        0.700977485   0.474055094  -0.009120632
C        0.794012653   0.392451541  -0.003907173
C       -0.036178115   0.722981472  -0.000680850
C        0.048862226   0.639977489   0.003369009
C        0.214827757   0.720612917   0.013808413
C        0.299604080   0.638328344   0.022096846
C        0.465370522   0.731592034   0.051489078
F        0.592054310   0.672558594  -0.074377531
C        0.733426972   0.738453796  -0.031664141
C        0.797660572   0.643236289  -0.015406005
C        0.047050195   0.888379088   0.007429063
C        0.299532647   0.889059793   0.015797296
C        0.554411508   0.897474081   0.020005264
C        0.804270903   0.895676008  -0.005420285
O        1.035321456   1.146644958   0.137847739
O        0.522124241   0.678454528   0.104802384
H        1.089519863   1.096071959   0.163729847
K_POINTS automatic 
  16 16 1   0 0 0 

