 &CONTROL
                 calculation = 'relax' ,
                      outdir = './tmp/' ,
                  pseudo_dir = '/home/deleted/pseudo_psl' ,
                      prefix = 'GF_ip' ,
                   verbosity = 'high' ,
               etot_conv_thr = 1.0D-5 ,
               forc_conv_thr = 4.0D-4 ,
                       nstep = 1000 ,
                    dipfield = .true. ,
 /
 &SYSTEM
                       ibrav = 4,
                           A = 9.88 ,
                           C = 15 ,
                         nat = 34,
                        ntyp = 4,
                     ecutwfc = 40.424239707 ,
                     ecutrho = 404.24239707 ,
                 occupations = 'smearing' ,
                     degauss = 0.01 ,
				   input_dft = 'vdW-DF' ,
 /
 &ELECTRONS
            electron_maxstep = 50001,
                    conv_thr = 1.0D-6 ,
                 mixing_mode = 'local-TF' ,
                 mixing_beta = 0.5 ,
 /
 &IONS
                ion_dynamics = 'bfgs' ,
 /
ATOMIC_SPECIES
    C   12.01100  C.revpbe-n-kjpaw_psl.0.1.UPF 
    F   18.99800  F.revpbe-n-kjpaw_psl.0.1.UPF 
    O   15.99940  O.revpbe-n-kjpaw_psl.0.1.UPF 
    H   1.008000  H.revpbe-kjpaw_psl.0.1.UPF
ATOMIC_POSITIONS crystal 
C       -0.010098401  -0.005982411  -0.000678807
C        0.236937814  -0.010571315   0.007475111
C        0.488505797  -0.006345696   0.010239233
C        0.738436862  -0.004807740  -0.000772460
C       -0.009596647   0.244589146   0.003653631
C        0.072792687   0.160615161   0.006035709
C        0.240691972   0.242527558   0.008474108
C        0.318635871   0.153668715   0.007399954
C        0.484484381   0.241737775   0.004981478
C        0.570549504   0.160229357   0.004543036
C        0.736663437   0.244536581   0.003407833
C        0.822017641   0.161588836   0.001597134
C       -0.012469017   0.492630091   0.003970723
C        0.076012764   0.410479038   0.007038482
C        0.250073926   0.493871115   0.014343001
C        0.331307934   0.404938478   0.010105604
C        0.556541962   0.404520060   0.000641791
C        0.724987324   0.492883240  -0.006085066
C        0.816410597   0.410697136   0.000686156
C       -0.013840132   0.741959978  -0.000975915
C        0.070465580   0.658596110   0.005241051
C        0.237811117   0.740637160   0.012634439
C        0.322224430   0.659817766   0.023661427
C        0.488536593   0.750058145   0.044399572
F        0.617545562   0.687883755  -0.083143012
C        0.755301879   0.755316992  -0.036700939
C        0.819744828   0.661505973  -0.015427874
C        0.070016715   0.907725589   0.001594849
C        0.321196843   0.907969066   0.011954209
C        0.573946784   0.913484051   0.013756723
C        0.825185386   0.914226060  -0.013977420
O        0.730310120   0.873147776   0.183794031
O        0.554975911   0.689286572   0.086647926
H        0.675010505   0.788297940   0.227012999
K_POINTS automatic 
  4 4 1   0 0 0 

