 &CONTROL
                 calculation = 'bands' ,
                      outdir = './tmp/' ,
                  pseudo_dir = '/home/deleted/pseudo_psl' ,
                      prefix = 'GF_ip' ,
                   verbosity = 'high' ,
               etot_conv_thr = 1.0D-5 ,
               forc_conv_thr = 4.0D-4 ,
                       nstep = 1000 ,
                    dipfield = .true. ,
 /
 &SYSTEM
                       ibrav = 4,
                           A = 9.88 ,
                           C = 15 ,
                         nat = 34,
                        ntyp = 4,
                     ecutwfc = 40.424239707 ,
                     ecutrho = 404.24239707 ,
                 occupations = 'tetrahedra' ,
                     degauss = 0.01 ,
				   input_dft = 'vdW-DF' ,
    nspin = 2 ,
    starting_magnetization(1) = 0.5,
    starting_magnetization(2) = 0.5,
    starting_magnetization(3) = 0.5,
 /
 &ELECTRONS
            electron_maxstep = 50001,
                    conv_thr = 1.0D-6 ,
                 mixing_mode = 'local-TF' ,
                 mixing_beta = 0.5 ,
 /
ATOMIC_SPECIES
    C   12.01100  C.revpbe-n-kjpaw_psl.0.1.UPF 
    F   18.99800  F.revpbe-n-kjpaw_psl.0.1.UPF 
    O   15.99940  O.revpbe-n-kjpaw_psl.0.1.UPF 
    H   1.008000  H.revpbe-kjpaw_psl.0.1.UPF
ATOMIC_POSITIONS (crystal)
C        0.003009019   0.003296104   0.003023032
C        0.247038697  -0.004858640   0.006109659
C        0.499094640   0.003250446   0.001885193
C        0.753932719   0.009086793  -0.004975342
C        0.004244491   0.254137700   0.002724429
C        0.086152192   0.169553231   0.004563471
C        0.253002017   0.248064306   0.006210528
C        0.328403857   0.157957005   0.007001640
C        0.493938201   0.247989184   0.005859605
C        0.582274901   0.169448202   0.003869333
C        0.748790471   0.254050158   0.002309001
C        0.836011515   0.173097373   0.000179403
C       -0.000110231   0.500681024   0.002623783
C        0.090849891   0.419395660   0.002755919
C        0.265398817   0.498803899   0.001547707
C        0.347882387   0.410277622   0.003950986
C        0.561117160   0.410138447   0.003996094
C        0.732358549   0.498600058   0.001899131
C        0.827617069   0.419336118   0.002661896
C       -0.003231422   0.748130873   0.003360279
C        0.082412980   0.665719319   0.003610865
C        0.250442634   0.748238749   0.002362144
C        0.338667896   0.666611319  -0.002048940
C        0.496986004   0.766314408  -0.009720775
F        0.591941758   0.683925308  -0.028289220
C        0.767336487   0.765952108  -0.006958724
C        0.826789190   0.666511165  -0.000528624
C        0.080353922   0.914198056   0.004571101
C        0.332733947   0.914132865   0.003755898
C        0.587448020   0.925680544  -0.005375539
C        0.836964360   0.925675787  -0.003976775
O        0.561748681   0.691620414   0.174306488
O        0.439729868   0.720008291   0.198255576
H        0.542357679   0.602422669   0.212042468
K_POINTS automatic 
  20 20 1   0 0 0 

