 &CONTROL
                 calculation = 'bands' ,
                      outdir = './tmp/' ,
                  pseudo_dir = '/home/deleted/pseudo_psl' ,
                      prefix = 'GI_ip' ,
                   verbosity = 'high' ,
               etot_conv_thr = 1.0D-5 ,
               forc_conv_thr = 4.0D-4 ,
                       nstep = 1000 ,
                    dipfield = .true. ,
 /
 &SYSTEM
                       ibrav = 4,
                           A = 9.88 ,
                           C = 15 ,
                         nat = 34,
                        ntyp = 4,
                     ecutwfc = 40.424239707 ,
                     ecutrho = 404.24239707 ,
                 occupations = 'tetrahedra' ,
                     degauss = 0.01 ,
				   input_dft = 'vdW-DF' ,
 /
 &ELECTRONS
            electron_maxstep = 50001,
                    conv_thr = 1.0D-6 ,
                 mixing_mode = 'local-TF' ,
                 mixing_beta = 0.5 ,
 /
ATOMIC_SPECIES
    C   12.01100  C.revpbe-n-kjpaw_psl.0.1.UPF 
    I  126.90400  I.revpbe-n-kjpaw_psl.0.2.UPF 
    O   15.99940  O.revpbe-n-kjpaw_psl.0.1.UPF 
    H   1.008000  H.revpbe-kjpaw_psl.0.1.UPF
ATOMIC_POSITIONS crystal 
C       -0.007236657  -0.003891950   0.004373889
C        0.245649390   0.003516679   0.008726842
C        0.491119017  -0.003564495   0.005834566
C        0.739289193  -0.009385743  -0.004331870
C       -0.011297892   0.242708572   0.012810693
C        0.074421403   0.162972912   0.005469019
C        0.241258174   0.249865545  -0.005257479
C        0.328430428   0.168839799  -0.004451106
C        0.496351701   0.249856365  -0.006792162
C        0.576344655   0.163291478   0.004866335
C        0.741961204   0.242769624   0.011794054
C        0.821846159   0.155854411   0.009061851
C       -0.008440748   0.495535742   0.026639032
C        0.069268725   0.409248359   0.020586512
C        0.231461555   0.494427938   0.006227132
C        0.306576223   0.412855472  -0.013227540
C        0.594321421   0.412903448  -0.017619392
C        0.751793616   0.494596574   0.000507356
C        0.827951797   0.409598495   0.017834159
C       -0.001812447   0.749893155   0.017157080
C        0.075674486   0.663891423   0.026288318
C        0.239698634   0.750176236   0.020387085
C        0.316744427   0.665135139   0.006113840
C        0.473411526   0.746700889  -0.013177628
I        0.532675462   0.579585014  -0.058509122
C        0.761861628   0.746829154  -0.019082123
C        0.836923617   0.664947909   0.000048029
C        0.078819544   0.916624417   0.011070780
C        0.325624747   0.916793527   0.012744109
C        0.571067693   0.909521318  -0.004957595
C        0.826075658   0.909320114  -0.007201720
O        0.662836580   0.609300555   0.173191782
O        0.517762056   0.552886993   0.124309324
H        0.645465157   0.514191288   0.203606377
K_POINTS crystal_b 
4
0.0000000000    0.0000000000    0.0000000000 17
0.0000000000    0.5000000000    0.0000000000 10
0.3333333333    0.3333333333    0.0000000000 20
0.0000000000    0.0000000000    0.0000000000 1

