 &CONTROL
                 calculation = 'nscf' ,
                      outdir = './tmp/' ,
                  pseudo_dir = '/home/deleted/pseudo_psl' ,
                      prefix = 'GI_ip' ,
                   verbosity = 'high' ,
               etot_conv_thr = 1.0D-5 ,
               forc_conv_thr = 4.0D-4 ,
                       nstep = 1000 ,
                    dipfield = .true. ,
 /
 &SYSTEM
                       ibrav = 4,
                           A = 9.88 ,
                           C = 15 ,
                         nat = 33,
                        ntyp = 3,
                     ecutwfc = 40.424239707 ,
                     ecutrho = 404.24239707 ,
                 occupations = 'tetrahedra' ,
                     degauss = 0.01 ,
				   input_dft = 'vdW-DF' ,
 /
 &ELECTRONS
            electron_maxstep = 50001,
                    conv_thr = 1.0D-6 ,
                 mixing_mode = 'local-TF' ,
                 mixing_beta = 0.5 ,
 /
ATOMIC_SPECIES
    C   12.01100  C.revpbe-n-kjpaw_psl.0.1.UPF 
    I  126.90400  I.revpbe-n-kjpaw_psl.0.2.UPF 
    O   15.99940  O.revpbe-n-kjpaw_psl.0.1.UPF 
ATOMIC_POSITIONS crystal 
C        0.004306193   0.004896856  -0.002225583
C        0.257156581   0.011950829  -0.005329639
C        0.502909492   0.005264714  -0.003091976
C        0.751122604   0.000068147   0.006149631
C        0.000601808   0.251857351  -0.009894144
C        0.086262461   0.172000706  -0.003098709
C        0.253436225   0.258845230   0.006655337
C        0.339743214   0.177164799   0.006971732
C        0.507732738   0.259175096   0.008797768
C        0.588043526   0.172397225  -0.001904865
C        0.753587957   0.252051299  -0.008537255
C        0.833760184   0.165279878  -0.005762461
C        0.003330395   0.504644270  -0.023711444
C        0.081274965   0.418361550  -0.018079799
C        0.244001861   0.503245821  -0.005960552
C        0.320454562   0.422578772   0.012096074
C        0.604680645   0.423025039   0.016948857
C        0.761979716   0.503424492  -0.001355739
C        0.839454387   0.418623844  -0.015591525
C        0.009546479   0.758643780  -0.015616910
C        0.087424541   0.672659342  -0.023550209
C        0.251542265   0.758930026  -0.017949973
C        0.329441822   0.673904215  -0.006138436
C        0.486510654   0.754783625   0.011411886
I        0.543827589   0.589924419   0.066060992
C        0.770143000   0.754406398   0.015068018
C        0.847200305   0.673796003  -0.001878703
C        0.090231587   0.925224433  -0.008526671
C        0.337341827   0.925316387  -0.009549682
C        0.583277565   0.918460131   0.006148322
C        0.837182687   0.918237420   0.007695775
O        0.513350150   0.776915100   0.213324583
O        0.376244647   0.650905416   0.210425299
K_POINTS automatic 
  20 20 1   0 0 0 

