 &CONTROL
                 calculation = 'bands' ,
                      outdir = './tmp/' ,
                  pseudo_dir = '/home/deleted/pseudo_psl' ,
                      prefix = 'GCl_op' ,
                   verbosity = 'high' ,
               etot_conv_thr = 1.0D-5 ,
               forc_conv_thr = 4.0D-4 ,
                       nstep = 1000 ,
                    dipfield = .true. ,
 /
 &SYSTEM
                       ibrav = 4,
                           A = 9.88 ,
                           C = 15 ,
                         nat = 34,
                        ntyp = 4,
                     ecutwfc = 40.424239707 ,
                     ecutrho = 404.24239707 ,
                 occupations = 'tetrahedra' ,
                     degauss = 0.01 ,
				   input_dft = 'vdW-DF' ,
    nspin = 2 ,
    starting_magnetization(1) = 0.5,
    starting_magnetization(2) = 0.5,
    starting_magnetization(3) = 0.5,
 /
 &ELECTRONS
            electron_maxstep = 50001,
                    conv_thr = 1.0D-6 ,
                 mixing_mode = 'local-TF' ,
                 mixing_beta = 0.5 ,
 /
ATOMIC_SPECIES
    C   12.01100  C.revpbe-n-kjpaw_psl.0.1.UPF 
   Cl   35.45200  Cl.revpbe-n-kjpaw_psl.0.3.0.UPF 
    O   15.99940  O.revpbe-n-kjpaw_psl.0.1.UPF 
    H   1.008000  H.revpbe-kjpaw_psl.0.1.UPF
ATOMIC_POSITIONS (crystal)
C       -0.011284493  -0.003883416  -0.002428275
C        0.234809141  -0.009380930  -0.011376830
C        0.486573022  -0.003686606  -0.004049344
C        0.739899238   0.000959813   0.014435034
C       -0.009815567   0.246874425  -0.002268782
C        0.071884752   0.162447852  -0.006470783
C        0.239185053   0.242721472  -0.011186119
C        0.316264968   0.153540228  -0.013185996
C        0.482645011   0.243024767  -0.011635096
C        0.569542511   0.162642325  -0.007106188
C        0.735663018   0.246924895  -0.002910072
C        0.821713718   0.164463273   0.002946966
C       -0.013170921   0.494750670  -0.004040219
C        0.076169624   0.412336858  -0.003454342
C        0.249678984   0.493415710  -0.002313030
C        0.330232672   0.404695131  -0.007949246
C        0.553772841   0.404870068  -0.008167819
C        0.722820519   0.493423138  -0.001373342
C        0.815106356   0.412417965  -0.003654234
C       -0.016013870   0.742655825  -0.005660388
C        0.069187047   0.659478320  -0.008025617
C        0.237530554   0.742619825  -0.006650601
C        0.325117252   0.662255994   0.003478118
C        0.484725128   0.754760221   0.020685815
Cl       0.579182362   0.673274607   0.093098273
C        0.753110569   0.756031757   0.028226413
C        0.816613142   0.661841161   0.006434678
C        0.067670153   0.908688598  -0.007111003
C        0.320042061   0.908648933  -0.008318266
C        0.571506086   0.916912787   0.011660044
C        0.824835389   0.917388185   0.015124191
O        0.699562774   0.590611277   0.187181183
O        0.557297965   0.478751938   0.234222762
H        0.578243476   0.523830205   0.294113570
K_POINTS automatic 
  20 20 1   0 0 0 

