 &CONTROL
                 calculation = 'nscf' ,
                      outdir = './tmp/' ,
                  pseudo_dir = '/home/deleted/pseudo_psl' ,
                      prefix = 'GBr_op' ,
                   verbosity = 'high' ,
               etot_conv_thr = 1.0D-5 ,
               forc_conv_thr = 4.0D-4 ,
                       nstep = 1000 ,
                    dipfield = .true. ,
 /
 &SYSTEM
                       ibrav = 4,
                           A = 9.88 ,
                           C = 15 ,
                         nat = 34,
                        ntyp = 4,
                     ecutwfc = 40.424239707 ,
                     ecutrho = 404.24239707 ,
                 occupations = 'tetrahedra' ,
                     degauss = 0.01 ,
				   input_dft = 'vdW-DF' ,
    nspin = 2 ,
    starting_magnetization(1) = 0.5,
    starting_magnetization(2) = 0.5,
    starting_magnetization(3) = 0.5,
 /
 &ELECTRONS
            electron_maxstep = 50001,
                    conv_thr = 1.0D-6 ,
                 mixing_mode = 'local-TF' ,
                 mixing_beta = 0.5 ,
 /
ATOMIC_SPECIES
    C   12.01100  C.revpbe-n-kjpaw_psl.0.1.UPF 
   Br   79.90350  Br.revpbe-n-kjpaw_psl.0.2.UPF 
    O   15.99940  O.revpbe-n-kjpaw_psl.0.1.UPF 
    H   1.008000  H.revpbe-kjpaw_psl.0.1.UPF
ATOMIC_POSITIONS (crystal)
C       -0.000103361   0.022845665  -0.011728268
C        0.247401843   0.020710972   0.000359216
C        0.498534208   0.019963510   0.014044457
C        0.748837298   0.023764739   0.000228525
C       -0.007615062   0.266284006  -0.027972546
C        0.081471101   0.189502368  -0.014442964
C        0.248016287   0.273718916  -0.001223700
C        0.329400824   0.187618308   0.000140800
C        0.495697080   0.267853196  -0.011407992
C        0.579348711   0.183525294  -0.008143629
C        0.744133294   0.268183075  -0.021112382
C        0.827248270   0.184948389  -0.020645014
C       -0.008202564   0.518950658  -0.031846406
C        0.068726069   0.430377068  -0.035173388
C        0.229424249   0.510617115  -0.021003298
C        0.313712784   0.439406245   0.003937442
C        0.583119286   0.426936385  -0.027172108
C        0.742844186   0.518668754  -0.028079346
C        0.826713500   0.435303822  -0.029141726
C       -0.003325153   0.771102714  -0.017401580
C        0.078752255   0.687002921  -0.020190891
C        0.243015905   0.769297508  -0.003846284
C        0.312242398   0.671754474   0.000445376
C        0.441821788   0.690039392   0.043699679
Br       1.067072721   0.441385169   0.220123327
C        0.759930654   0.778947738  -0.016445808
C        0.828767560   0.688085785  -0.023331433
C        0.080678472   0.937305581  -0.008879510
C        0.328752536   0.934552167   0.008011223
C        0.594965428   0.954565823   0.030260638
C        0.832401682   0.939006495  -0.008124342
O        0.549627498   0.819182054   0.085252594
O        0.450300314   0.555883402   0.048363065
H        0.233290784   0.536375001   0.232587021
K_POINTS automatic 
  20 20 1   0 0 0 

