&CONTROL
	calculation = 'bands' ,
	outdir = './tmp/' ,
	pseudo_dir = '/home/deleted/pseudo_psl' ,
	prefix = 'GI_op' ,
	verbosity = 'high' ,
	etot_conv_thr = 1.0D-5 ,
	forc_conv_thr = 4.0D-4 ,
	nstep = 1000 ,
	dipfield = .true. ,
/
&SYSTEM
	ibrav = 4,
	A = 9.88 ,
	C = 15 ,
	nat = 31,
	ntyp = 2,
	ecutwfc = 40.424239707 ,
	ecutrho = 404.24239707 ,
	occupations = 'tetrahedra' ,
	degauss = 0.01 ,
    input_dft = 'vdW-DF' ,
/
&ELECTRONS
	electron_maxstep = 50001,
	conv_thr = 1.0D-6 ,
	mixing_mode = 'local-TF' ,
	mixing_beta = 0.5 ,
/
ATOMIC_SPECIES
	C	12.01100	C.revpbe-n-kjpaw_psl.0.1.UPF 
	I	126.90400	I.revpbe-n-kjpaw_psl.0.2.UPF  
ATOMIC_POSITIONS crystal 
C        0.001136717   0.001454681   0.008117286
C        0.243386164  -0.013227672   0.045718017
C        0.500317964   0.001454681   0.008117286
C        0.750691510   0.001383020  -0.000934830
C        0.001173367   0.251739753  -0.003961628
C        0.086587610   0.168691318  -0.001517827
C        0.251892424   0.264440639  -0.009436013
I        0.304515663   0.109031328   0.173662189
C        0.512548216   0.264440639  -0.009436013
C        0.582103707   0.168691318  -0.001517827
C        0.750566386   0.251739753  -0.003961628
C        0.834055807   0.168111614  -0.001768333
C        0.001370668   0.502741337  -0.005030925
C        0.083004517   0.418740580  -0.006339871
C        0.249357779   0.505943985  -0.007891875
C        0.318678030   0.414311068  -0.009658015
C        0.595633036   0.414311068  -0.009658015
C        0.756586206   0.505943985  -0.007891875
C        0.835736062   0.418740580  -0.006339871
C        0.002240630   0.753018775   0.001037267
C        0.084197159   0.668394320  -0.000544887
C        0.250778144   0.753018775   0.001037267
C        0.333628263   0.671114058  -0.005326482
C        0.501231245   0.748151600  -0.002966396
C        0.581915744   0.663831488  -0.007048254
C        0.746920355   0.748151600  -0.002966396
C        0.837485794   0.671114058  -0.005326482
C        0.084359877   0.918058301   0.018097269
C        0.333698424   0.918058301   0.018097269
C        0.583889102   0.917535861   0.001153131
C        0.833646758   0.917535861   0.001153131
K_POINTS crystal_b 
4
0.0000000000    0.0000000000    0.0000000000 17
0.0000000000    0.5000000000    0.0000000000 10
0.3333333333    0.3333333333    0.0000000000 20
0.0000000000    0.0000000000    0.0000000000 1
