 &CONTROL
                 calculation = 'bands' ,
                      outdir = './tmp/' ,
                  pseudo_dir = '/home/deleted/pseudo_psl' ,
                      prefix = 'GBr_op' ,
                   verbosity = 'high' ,
               etot_conv_thr = 1.0D-5 ,
               forc_conv_thr = 4.0D-4 ,
                       nstep = 1000 ,
                    dipfield = .true. ,
 /
 &SYSTEM
                       ibrav = 4,
                           A = 9.88 ,
                           C = 15 ,
                         nat = 32,
                        ntyp = 3,
                     ecutwfc = 40.424239707 ,
                     ecutrho = 404.24239707 ,
                 occupations = 'tetrahedra' ,
                     degauss = 0.01 ,
				   input_dft = 'vdW-DF' ,
 /
 &ELECTRONS
            electron_maxstep = 50001,
                    conv_thr = 1.0D-6 ,
                 mixing_mode = 'local-TF' ,
                 mixing_beta = 0.5 ,
 /
ATOMIC_SPECIES
    C   12.01100  C.revpbe-n-kjpaw_psl.0.1.UPF 
   Br   79.90350  Br.revpbe-n-kjpaw_psl.0.2.UPF 
    O   15.99940  O.revpbe-n-kjpaw_psl.0.1.UPF 
ATOMIC_POSITIONS crystal 
C       -0.000840168   0.001306271   0.003115815
C        0.246487519  -0.003575337  -0.005388274
C        0.498554849   0.001622363  -0.007508719
C        0.748677496   0.003744728   0.005439385
C        0.000676097   0.252717801   0.002464391
C        0.082459072   0.168362860  -0.001611517
C        0.250522493   0.249829981  -0.003858013
C        0.328115023   0.160596234  -0.004140772
C        0.493891157   0.249357519  -0.001327212
C        0.580254936   0.168203262  -0.000679193
C        0.746402530   0.252677350   0.001451389
C        0.832154508   0.170070492   0.003927413
C       -0.002748829   0.500473305   0.000790767
C        0.086406422   0.418560664  -0.001038944
C        0.260746672   0.501468551  -0.009094719
C        0.341916728   0.411884521  -0.005102599
C        0.564757096   0.412257229   0.002981258
C        0.733894285   0.500517018   0.010730937
C        0.825721442   0.418745497   0.004142963
C       -0.005309723   0.749330029   0.003022803
C        0.079594382   0.666010795  -0.002891635
C        0.247373947   0.747508100  -0.010709494
C        0.332515316   0.666860757  -0.018962523
C        0.499306691   0.758155436  -0.043324343
Br       0.605404693   0.689733222   0.138492550
C        0.765725101   0.764039318   0.045792926
C        0.828101433   0.669257890   0.020516751
C        0.079241103   0.914891769   0.000272135
C        0.330844847   0.915171911  -0.010215504
C        0.584868539   0.922463848  -0.011239202
C        0.834597473   0.921554684   0.018659834
O        0.561696714   0.702350288  -0.091453310
K_POINTS crystal_b 
4
0.0000000000    0.0000000000    0.0000000000 17
0.0000000000    0.5000000000    0.0000000000 10
0.3333333333    0.3333333333    0.0000000000 20
0.0000000000    0.0000000000    0.0000000000 1

