 &CONTROL
                 calculation = 'nscf' ,
                      outdir = './tmp/' ,
                  pseudo_dir = '/home/deleted/pseudo_psl' ,
                      prefix = 'PG_txc' ,
                    dipfield = .true. ,
                   verbosity = 'high',
                       nstep = 1000,
               forc_conv_thr = 4.0D-4,
               etot_conv_thr = 1.0D-5
 /
 &SYSTEM
                       ibrav = 4,
                           A = 9.88 ,
                           C = 15 ,
                         nat = 34,
                        ntyp = 2,
                     ecutwfc = 40.424239707 ,
                     ecutrho = 404.24239707 ,
                 occupations = 'tetrahedra' ,
                     degauss = 0.01 ,
				   input_dft = 'vdW-DF' ,
    nspin = 2 ,
    starting_magnetization(1) = 0.5,
	starting_magnetization(2) = 0.5,
 /
 &ELECTRONS
            electron_maxstep = 50001,
                    conv_thr = 1.0D-6 ,
                 mixing_mode = 'local-TF' ,
                 mixing_beta = 0.5 ,
 /
ATOMIC_SPECIES
    C   12.01100  C.revpbe-n-kjpaw_psl.0.1.UPF 
    O   15.99940  O.revpbe-n-kjpaw_psl.0.1.UPF 
ATOMIC_POSITIONS crystal 
C       -0.000023755  -0.000010216  -0.006865362
C        0.249999659  -0.000001067  -0.006794649
C        0.500006911  -0.000021991  -0.007056030
C        0.749986477  -0.000021732  -0.007298130
C        0.000000275   0.249996098  -0.006791250
C        0.083332674   0.166668342  -0.006790790
C        0.250008137   0.250020848  -0.006865424
C        0.333335554   0.166671046  -0.006816513
C        0.500000677   0.250006521  -0.006866264
C        0.583330865   0.166659041  -0.006866240
C        0.749998277   0.249992741  -0.006816763
C        0.833322159   0.166645302  -0.006865921
C        0.000003221   0.499997220  -0.006816925
C        0.083356789   0.416680725  -0.006865870
C        0.250018939   0.500009422  -0.007298133
C        0.333348521   0.416690244  -0.007297998
C        0.500009121   0.500046521  -0.007573096
C        0.583328175   0.416689545  -0.007056157
C        0.749987987   0.500007006  -0.006922232
C        0.833333209   0.416670323  -0.006794941
C       -0.000009898   0.749996507  -0.006866546
C        0.083342719   0.666671378  -0.006866631
C        0.250020127   0.749990697  -0.007056361
C        0.333383216   0.666681220  -0.007573348
C        0.500007486   0.749989967  -0.008109241
C        0.583326174   0.666676581  -0.008109080
C        0.749949160   0.749987507  -0.007572988
C        0.833313788   0.666674849  -0.007056199
C        0.083329672   0.916664906  -0.006816628
C        0.333343210   0.916657148  -0.006921970
C        0.583320869   0.916617817  -0.007573123
C        0.833312182   0.916652834  -0.007297879
O        0.478852840   0.645517853   0.213567967
O        0.604491241   0.771158138   0.213570712
K_POINTS automatic 
  20 20 1   0 0 0 

