 &CONTROL
                 calculation = 'relax' ,
                      outdir = './tmp/' ,
                  pseudo_dir = '/home/deleted/pseudo_psl' ,
                      prefix = 'GBr_op' ,
                   verbosity = 'high' ,
               etot_conv_thr = 1.0D-5 ,
               forc_conv_thr = 4.0D-4 ,
                       nstep = 1000 ,
                    dipfield = .true. ,
 /
 &SYSTEM
                       ibrav = 4,
                           A = 9.88 ,
                           C = 15 ,
                         nat = 34,
                        ntyp = 4,
                     ecutwfc = 40.424239707 ,
                     ecutrho = 404.24239707 ,
                 occupations = 'smearing' ,
                     degauss = 0.01 ,
				   input_dft = 'vdW-DF' ,
    nspin = 2 ,
    starting_magnetization(1) = 0.5,
    starting_magnetization(2) = 0.5,
    starting_magnetization(3) = 0.5,
	starting_magnetization(4) = 0.5,
 /
 &ELECTRONS
            electron_maxstep = 50001,
                    conv_thr = 1.0D-6 ,
                 mixing_mode = 'local-TF' ,
                 mixing_beta = 0.5 ,
 /
 &IONS
                ion_dynamics = 'bfgs' ,
 /
ATOMIC_SPECIES
    C   12.01100  C.revpbe-n-kjpaw_psl.0.1.UPF 
   Br   79.90350  Br.revpbe-n-kjpaw_psl.0.2.UPF 
    O   15.99940  O.revpbe-n-kjpaw_psl.0.1.UPF 
    H   1.008000  H.revpbe-kjpaw_psl.0.1.UPF
ATOMIC_POSITIONS (crystal)
C       -0.001870618  -0.001005620  -0.004324791
C        0.244249928  -0.011500144  -0.004035285
C        0.500864998  -0.001005620  -0.004324791
C        0.756811636   0.013623271  -0.004912836
C        0.006826298   0.255460944  -0.005058983
C        0.084534226   0.166187844  -0.004516194
C        0.251572082   0.243106186  -0.004592333
C        0.325637581   0.151275163  -0.004051447
C        0.491534104   0.243106186  -0.004592333
C        0.581653618   0.166187844  -0.004516194
C        0.748634646   0.255460944  -0.005058983
C        0.838328975   0.176657953  -0.004955737
C        0.000307387   0.500614774  -0.006108353
C        0.095336147   0.420356868  -0.005879294
C        0.273230354   0.498496492  -0.006360638
C        0.351974151   0.405475054  -0.005576675
C        0.553500902   0.405475054  -0.005576675
C        0.725266138   0.498496492  -0.006360638
C        0.825020721   0.420356868  -0.005879294
C       -0.012951762   0.744610932  -0.005747953
C        0.082211146   0.664422293  -0.006144065
C        0.257562695   0.744610932  -0.005747953
C        0.356617838   0.666597015  -0.006255398
C        0.528650736   0.759701753  -0.004071444
Br       0.596234314   0.692468630   0.180509741
C        0.731051017   0.759701753  -0.004071444
C        0.809979176   0.666597015  -0.006255398
C        0.075674794   0.909659036  -0.004470983
C        0.333984241   0.909659036  -0.004470983
C        0.591165544   0.922384689  -0.004564677
C        0.831219144   0.922384689  -0.004564677
O        0.632614158   0.765228315   0.435623785
O        0.560519692   0.621039386   0.433546895
H        0.732360526   0.625237048   0.43458534
K_POINTS automatic 
  4 4 1   0 0 0 

