 &CONTROL
                 calculation = 'nscf' ,
                      outdir = './tmp/' ,
                  pseudo_dir = '/home/deleted/pseudo_psl' ,
                      prefix = 'GF_op' ,
                   verbosity = 'high' ,
               etot_conv_thr = 1.0D-5 ,
               forc_conv_thr = 4.0D-4 ,
                       nstep = 1000 ,
                    dipfield = .true. ,
 /
 &SYSTEM
                       ibrav = 4,
                           A = 9.88 ,
                           C = 15 ,
                         nat = 32,
                        ntyp = 3,
                     ecutwfc = 40.424239707 ,
                     ecutrho = 404.24239707 ,
                 occupations = 'tetrahedra' ,
                     degauss = 0.01 ,
				   input_dft = 'vdW-DF' ,
    nspin = 2 ,
    starting_magnetization(1) = 0.5,
    starting_magnetization(2) = 0.5,
    starting_magnetization(3) = 0.5,
 /
 &ELECTRONS
            electron_maxstep = 50001,
                    conv_thr = 1.0D-6 ,
                 mixing_mode = 'local-TF' ,
                 mixing_beta = 0.5 ,
 /
ATOMIC_SPECIES
    C   12.01100  C.revpbe-n-kjpaw_psl.0.1.UPF 
    F   18.99800  F.revpbe-n-kjpaw_psl.0.1.UPF 
    O   15.99940  O.revpbe-n-kjpaw_psl.0.1.UPF 
ATOMIC_POSITIONS (crystal)
C       -0.002709343  -0.001632001   0.005821526
C        0.246632901  -0.006734198   0.006578539
C        0.501077342  -0.001632001   0.005821526
C        0.754896867   0.009793735   0.004799259
C        0.003523315   0.253556290   0.007194184
C        0.081236750   0.164851082   0.006668184
C        0.246894920   0.242755266   0.008751466
C        0.329070700   0.158141401   0.008187465
C        0.495860348   0.242755266   0.008751466
C        0.583614332   0.164851082   0.006668184
C        0.750032975   0.253556290   0.007194184
C        0.836739034   0.173478069   0.006032972
C        0.000646835   0.501293669   0.008634733
C        0.089108299   0.419840249   0.008738482
C        0.258783364   0.499828560   0.010327309
C        0.331222871   0.406127055   0.012277236
C        0.574904183   0.406127055   0.012277236
C        0.741045197   0.499828560   0.010327309
C        0.830731948   0.419840249   0.008738482
C       -0.008970294   0.747468689   0.007825255
C        0.083175973   0.666351947   0.008560907
C        0.256438983   0.747468689   0.007825255
C        0.350796061   0.667573823   0.008657538
C        0.523987648   0.757443437   0.005831676
F        0.600607525   0.701215050  -0.115776194
C        0.733455789   0.757443437   0.005831676
C        0.816777760   0.667573823   0.008657538
C        0.078624965   0.913032109   0.006400619
C        0.334407143   0.913032109   0.006400619
C        0.589305906   0.920269890   0.005063800
C        0.830963983   0.920269890   0.005063800
O        0.490449050   0.480898099   0.019201104
K_POINTS automatic 
  20 20 1   0 0 0 

