 &CONTROL
                 calculation = 'scf' ,
                      outdir = './tmp/' ,
                  pseudo_dir = '/home/deleted/pseudo_psl' ,
                      prefix = 'GI_ip' ,
                   verbosity = 'high' ,
               etot_conv_thr = 1.0D-5 ,
               forc_conv_thr = 4.0D-4 ,
                       nstep = 1000 ,
                    dipfield = .true. ,
 /
 &SYSTEM
                       ibrav = 4,
                           A = 9.88 ,
                           C = 15 ,
                         nat = 32,
                        ntyp = 3,
                     ecutwfc = 40.424239707 ,
                     ecutrho = 404.24239707 ,
                 occupations = 'smearing' ,
                     degauss = 0.01 ,
				   input_dft = 'vdW-DF' ,
    nspin = 2 ,
    starting_magnetization(1) = 0.5,
    starting_magnetization(2) = 0.5,
    starting_magnetization(3) = 0.5,
 /
 &ELECTRONS
            electron_maxstep = 50001,
                    conv_thr = 1.0D-6 ,
                 mixing_mode = 'local-TF' ,
                 mixing_beta = 0.5 ,
 /
ATOMIC_SPECIES
    C   12.01100  C.revpbe-n-kjpaw_psl.0.1.UPF 
    I  126.90400  I.revpbe-n-kjpaw_psl.0.2.UPF 
    O   15.99940  O.revpbe-n-kjpaw_psl.0.1.UPF 
ATOMIC_POSITIONS (crystal)
C        0.002431929   0.002797198   0.004592472
C        0.254935426   0.009870852   0.008286401
C        0.500365268   0.002797198   0.004592472
C        0.748325481  -0.003349037  -0.004906402
C       -0.002312533   0.248655603   0.010925481
C        0.083587032   0.169240935   0.004593350
C        0.249614495   0.255738464  -0.006843894
C        0.337693615   0.175387232  -0.004902824
C        0.506123969   0.255738464  -0.006843894
C        0.585653902   0.169240935   0.004593350
C        0.750968135   0.248655603   0.010925481
C        0.831084365   0.162168730   0.008284194
C        0.000999627   0.501999255   0.022835700
C        0.078680976   0.415826045   0.015850203
C        0.239292614   0.500803520  -0.000343058
C        0.315715974   0.418268450  -0.017389996
C        0.602552475   0.418268450  -0.017389996
C        0.761510907   0.500803520  -0.000343058
C        0.837145068   0.415826045   0.015850203
C        0.007331513   0.756207402   0.015850558
C        0.085020854   0.670041709   0.022835896
C        0.248875889   0.756207402   0.015850558
C        0.324508853   0.671241794  -0.000342255
C        0.483463218   0.753767267  -0.017395956
I        0.543008544   0.586017090  -0.058972875
C        0.770304049   0.753767267  -0.017395956
C        0.846732939   0.671241794  -0.000342255
C        0.088336730   0.923389248   0.010926174
C        0.335052517   0.923389248   0.010926174
C        0.579899289   0.916308865  -0.006846902
C        0.836409575   0.916308865  -0.006846902
O        0.543027433   0.586054868   0.079387557
K_POINTS automatic 
  16 16 1   0 0 0 

