 &CONTROL
                 calculation = 'bands' ,
                      outdir = './tmp/' ,
                  pseudo_dir = '/home/deleted/pseudo_psl' ,
                      prefix = 'GCl_ip' ,
                   verbosity = 'high' ,
               etot_conv_thr = 1.0D-5 ,
               forc_conv_thr = 4.0D-4 ,
                       nstep = 1000 ,
                    dipfield = .true. ,
 /
 &SYSTEM
                       ibrav = 4,
                           A = 9.88 ,
                           C = 15 ,
                         nat = 32,
                        ntyp = 3,
                     ecutwfc = 40.424239707 ,
                     ecutrho = 404.24239707 ,
                 occupations = 'tetrahedra' ,
                     degauss = 0.01 ,
				   input_dft = 'vdW-DF' ,
 /
 &ELECTRONS
            electron_maxstep = 50001,
                    conv_thr = 1.0D-6 ,
                 mixing_mode = 'local-TF' ,
                 mixing_beta = 0.5 ,
 /
ATOMIC_SPECIES
    C   12.01100  C.revpbe-n-kjpaw_psl.0.1.UPF 
   Cl   35.45200  Cl.revpbe-n-kjpaw_psl.0.3.0.UPF 
    O   15.99940  O.revpbe-n-kjpaw_psl.0.1.UPF 
ATOMIC_POSITIONS crystal 
C        0.002250724   0.003467876  -0.001701401
C        0.255205540   0.010411080  -0.003755893
C        0.501217152   0.003467876  -0.001701401
C        0.749080897  -0.001838205   0.001005209
C       -0.000649385   0.250981746  -0.004434550
C        0.085187597   0.171361950  -0.001723549
C        0.254021067   0.259863449   0.001892626
C        0.338321630   0.176643261   0.000957636
C        0.505842383   0.259863449   0.001892626
C        0.586174352   0.171361950  -0.001723549
C        0.751631132   0.250981746  -0.004434550
C        0.832200291   0.164400582  -0.003704364
C        0.001869867   0.503739735  -0.009902397
C        0.080625225   0.417841558  -0.006902872
C        0.244108000   0.502832674  -0.000123628
C        0.325866970   0.424585371   0.008191891
C        0.598718400   0.424585371   0.008191891
C        0.758724675   0.502832674  -0.000123628
C        0.837216332   0.417841558  -0.006902872
C        0.006794251   0.756960824  -0.006902945
C        0.085527279   0.671054561  -0.009915763
C        0.250166573   0.756960824  -0.006902945
C        0.328671085   0.671995711  -0.000094913
C        0.488666831   0.750268691   0.008270382
Cl       0.543707033   0.587414068   0.016397711
C        0.761601859   0.750268691   0.008270382
C        0.843324624   0.671995711  -0.000094913
C        0.088064198   0.923822019  -0.004442577
C        0.335757821   0.923822019  -0.004442577
C        0.581553699   0.914975166   0.001947429
C        0.833421466   0.914975166   0.001947429
O        0.543646952   0.587293906   0.120966074
K_POINTS crystal_b 
4
0.0000000000    0.0000000000    0.0000000000 17
0.0000000000    0.5000000000    0.0000000000 10
0.3333333333    0.3333333333    0.0000000000 20
0.0000000000    0.0000000000    0.0000000000 1

