 &CONTROL
                 calculation = 'scf' ,
                      outdir = './tmp/' ,
                  pseudo_dir = '/home/deleted/pseudo_psl' ,
                      prefix = 'GI_ip' ,
                   verbosity = 'high' ,
               etot_conv_thr = 1.0D-5 ,
               forc_conv_thr = 4.0D-4 ,
                       nstep = 1000 ,
                    dipfield = .true. ,
 /
 &SYSTEM
                       ibrav = 4,
                           A = 9.88 ,
                           C = 15 ,
                         nat = 33,
                        ntyp = 3,
                     ecutwfc = 40.424239707 ,
                     ecutrho = 404.24239707 ,
                 occupations = 'smearing' ,
                     degauss = 0.01 ,
				   input_dft = 'vdW-DF' ,
 /
 &ELECTRONS
            electron_maxstep = 50001,
                    conv_thr = 1.0D-6 ,
                 mixing_mode = 'local-TF' ,
                 mixing_beta = 0.5 ,
 /
ATOMIC_SPECIES
    C   12.01100  C.revpbe-n-kjpaw_psl.0.1.UPF 
    I  126.90400  I.revpbe-n-kjpaw_psl.0.2.UPF 
    O   15.99940  O.revpbe-n-kjpaw_psl.0.1.UPF 
ATOMIC_POSITIONS crystal 
C       -0.002829326  -0.007458819   0.004959616
C        0.249911854  -0.000176292   0.009267080
C        0.495370506  -0.007458819   0.004959616
C        0.743578119  -0.012843760  -0.004956604
C       -0.006976243   0.239208047   0.012019308
C        0.078867622   0.159561666   0.005168827
C        0.245770769   0.246266016  -0.005655034
C        0.332499197   0.164998396  -0.003958978
C        0.500495247   0.246266016  -0.005655034
C        0.580694042   0.159561666   0.005168827
C        0.746184289   0.239208047   0.012019308
C        0.826187907   0.152375815   0.008625229
C       -0.003957200   0.492085600   0.026976242
C        0.073780292   0.405981545   0.019260443
C        0.235509744   0.491011720   0.003546977
C        0.310921273   0.409290822  -0.015063658
C        0.598369547   0.409290822  -0.015063658
C        0.755501976   0.491011720   0.003546977
C        0.832201252   0.405981545   0.019260443
C        0.002308546   0.746257487   0.019348335
C        0.080056707   0.660113414   0.027214849
C        0.243948941   0.746257487   0.019348335
C        0.320626474   0.661455663   0.002967243
C        0.477350351   0.743206731  -0.017030760
I        0.537938954   0.575877910  -0.060823493
C        0.765856380   0.743206731  -0.017030760
C        0.840829188   0.661455663   0.002967243
C        0.083042716   0.913003417   0.012294271
C        0.329960702   0.913003417   0.012294271
C        0.575546855   0.905966104  -0.006836361
C        0.830419248   0.905966104  -0.006836361
O        0.543547267   0.587094534   0.143520698
O        0.609820129   0.719640257   0.184176560
K_POINTS automatic 
  16 16 1   0 0 0 

