 &CONTROL
                 calculation = 'relax' ,
                      outdir = './tmp/' ,
                  pseudo_dir = '/home/deleted/pseudo_psl' ,
                      prefix = 'GI_ip' ,
                   verbosity = 'high' ,
               etot_conv_thr = 1.0D-5 ,
               forc_conv_thr = 4.0D-4 ,
                       nstep = 1000 ,
                    dipfield = .true. ,
 /
 &SYSTEM
                       ibrav = 4,
                           A = 9.88 ,
                           C = 15 ,
                         nat = 33,
                        ntyp = 3,
                     ecutwfc = 40.424239707 ,
                     ecutrho = 404.24239707 ,
                 occupations = 'smearing' ,
                     degauss = 0.01 ,
				   input_dft = 'vdW-DF' ,
 /
 &ELECTRONS
            electron_maxstep = 50001,
                    conv_thr = 1.0D-6 ,
                 mixing_mode = 'local-TF' ,
                 mixing_beta = 0.5 ,
 /
 &IONS
                ion_dynamics = 'bfgs' ,
 /
ATOMIC_SPECIES
    C   12.01100  C.revpbe-n-kjpaw_psl.0.1.UPF 
    I  126.90400  I.revpbe-n-kjpaw_psl.0.2.UPF 
    O   15.99940  O.revpbe-n-kjpaw_psl.0.1.UPF 
ATOMIC_POSITIONS crystal 
C        0.002918063   0.003185983   0.000000000
C        0.254873447   0.009746894   0.000000000
C        0.500267920   0.003185983   0.000000000
C        0.748253476  -0.003493047   0.000000000
C       -0.002793957   0.248790899   0.000000000
C        0.083093813   0.168868081   0.000000000
C        0.249731802   0.254886128   0.000000000
C        0.337760408   0.175520817   0.000000000
C        0.505154326   0.254886128   0.000000000
C        0.585774267   0.168868081   0.000000000
C        0.751584855   0.248790899   0.000000000
C        0.831140457   0.162280915   0.000000000
C        0.001062660   0.502125320   0.000000000
C        0.075882184   0.415064242   0.000000000
C        0.237809916   0.500859115   0.000000000
C        0.312766364   0.416888551   0.000000000
C        0.604122186   0.416888551   0.000000000
C        0.763049199   0.500859115   0.000000000
C        0.839182057   0.415064242   0.000000000
C        0.010129245   0.756989269   0.000000000
C        0.084989778   0.669979556   0.000000000
C        0.246860024   0.756989269   0.000000000
C        0.322964081   0.671174997   0.000000000
C        0.481885651   0.755147970   0.000000000
I        0.543006801   0.586013603   0.000000000
C        0.773262319   0.755147970   0.000000000
C        0.848210915   0.671174997   0.000000000
C        0.088794259   0.923249418   0.000000000
C        0.334455159   0.923249418   0.000000000
C        0.580862849   0.917141654   0.000000000
C        0.836278804   0.917141654   0.000000000
O        0.500000000   0.500000000   0.159666667
O        0.500000000   0.500000000   0.240333333
K_POINTS automatic 
  4 4 1   0 0 0 

