 &CONTROL
                 calculation = 'bands' ,
                      outdir = './tmp/' ,
                  pseudo_dir = '/home/deleted/pseudo_psl' ,
                      prefix = 'GI_op' ,
                   verbosity = 'high' ,
               etot_conv_thr = 1.0D-5 ,
               forc_conv_thr = 4.0D-4 ,
                       nstep = 1000 ,
                    dipfield = .true. ,
 /
 &SYSTEM
                       ibrav = 4,
                           A = 9.88 ,
                           C = 15 ,
                         nat = 33,
                        ntyp = 3,
                     ecutwfc = 40.424239707 ,
                     ecutrho = 404.24239707 ,
                 occupations = 'tetrahedra' ,
                     degauss = 0.01 ,
				   input_dft = 'vdW-DF' ,
    nspin = 2 ,
    starting_magnetization(1) = 0.5,
    starting_magnetization(2) = 0.5,
    starting_magnetization(3) = 0.5,
 /
 &ELECTRONS
            electron_maxstep = 50001,
                    conv_thr = 1.0D-6 ,
                 mixing_mode = 'local-TF' ,
                 mixing_beta = 0.5 ,
 /
ATOMIC_SPECIES
    C   12.01100  C.revpbe-n-kjpaw_psl.0.1.UPF 
    I  126.90400  I.revpbe-n-kjpaw_psl.0.2.UPF 
    O   15.99940  O.revpbe-n-kjpaw_psl.0.1.UPF 
ATOMIC_POSITIONS (crystal)
C       -0.001267844   0.000172398  -0.006835073
C        0.244929290  -0.010141420  -0.006699929
C        0.501440242   0.000172398  -0.006835073
C        0.757488890   0.014977780  -0.007185000
C        0.007524804   0.256676587  -0.007808025
C        0.085099907   0.167392353  -0.007177413
C        0.252117551   0.244308141  -0.007372176
C        0.326234790   0.152469581  -0.006852822
C        0.492190590   0.244308141  -0.007372176
C        0.582292445   0.167392353  -0.007177413
C        0.749151783   0.256676587  -0.007808025
C        0.838859285   0.177718573  -0.007492274
C        0.000963466   0.501926933  -0.008887896
C        0.096019970   0.421563161  -0.008720999
C        0.273631311   0.499568005  -0.009090325
C        0.352133126   0.406581565  -0.008369967
C        0.554448439   0.406581565  -0.008369967
C        0.725936695   0.499568005  -0.009090325
C        0.825543189   0.421563161  -0.008720999
C       -0.012329068   0.745891633  -0.008118663
C        0.082763230   0.665526460  -0.008528996
C        0.258220701   0.745891633  -0.008118663
C        0.357493531   0.667963496  -0.008824924
C        0.529109844   0.761033995  -0.007249323
I        0.587605216   0.675210432   0.206111360
C        0.731924151   0.761033995  -0.007249323
C        0.810469964   0.667963496  -0.008824924
C        0.076211247   0.910841787  -0.006982357
C        0.334630539   0.910841787  -0.006982357
C        0.591676874   0.923441383  -0.007061504
C        0.831764509   0.923441383  -0.007061504
O        0.565168075   0.630336150   0.466693751
O        0.598010889   0.696021778   0.540023019
K_POINTS automatic 
  20 20 1   0 0 0 

