 &CONTROL
                 calculation = 'relax' ,
                      outdir = './tmp/' ,
                  pseudo_dir = '/home/deleted/pseudo_psl' ,
                      prefix = 'GBr_ip' ,
                   verbosity = 'high' ,
               etot_conv_thr = 1.0D-5 ,
               forc_conv_thr = 4.0D-4 ,
                       nstep = 1000 ,
                    dipfield = .true. ,
 /
 &SYSTEM
                       ibrav = 4,
                           A = 9.88 ,
                           C = 15 ,
                         nat = 34,
                        ntyp = 4,
                     ecutwfc = 40.424239707 ,
                     ecutrho = 404.24239707 ,
                 occupations = 'smearing' ,
                     degauss = 0.01 ,
				   input_dft = 'vdW-DF' ,
 /
 &ELECTRONS
            electron_maxstep = 50001,
                    conv_thr = 1.0D-6 ,
                 mixing_mode = 'local-TF' ,
                 mixing_beta = 0.5 ,
 /
 &IONS
                ion_dynamics = 'bfgs' ,
 /
ATOMIC_SPECIES
    C   12.01100  C.revpbe-n-kjpaw_psl.0.1.UPF 
   Br   79.90350  Br.revpbe-n-kjpaw_psl.0.2.UPF 
    O   15.99940  O.revpbe-n-kjpaw_psl.0.1.UPF 
    H   1.008000  H.revpbe-kjpaw_psl.0.1.UPF
ATOMIC_POSITIONS crystal 
C        0.003502171   0.013226798   0.004555059
C        0.252387790   0.011939320   0.002873331
C        0.502491874   0.013378790   0.011129304
C        0.754811266   0.015831256   0.010883982
C        0.003465431   0.263433209   0.015698098
C        0.086729677   0.179201160   0.012207620
C        0.251770572   0.259102875   0.018071042
C        0.335083316   0.178469236   0.002136115
C        0.503005139   0.260374724  -0.010590960
C        0.586931671   0.179934465   0.005409387
C        0.753273179   0.263930776   0.006548365
C        0.838126518   0.181527110   0.011655239
C        0.002771914   0.513696379   0.008745620
C        0.087446540   0.431163892   0.017511346
C        0.252340670   0.512598032   0.028536765
C        0.324434645   0.418594341   0.056479143
C        0.591851314   0.416118534  -0.040772258
C        0.750631666   0.510537895  -0.016846773
C        0.835168666   0.429711432   0.002178388
C        0.000065885   0.762078192  -0.000646667
C        0.086247613   0.679625614   0.005272912
C        0.254627427   0.762320933   0.010034538
C        0.339906864   0.678541500   0.019926392
C        0.507936380   0.768326980   0.015279908
Br       0.504538025   0.478487971  -0.138910001
C        0.753480011   0.767781968   0.000895172
C        0.831511039   0.679363344  -0.008872767
C        0.085044423   0.928689790   0.003011965
C        0.336730385   0.928801892   0.006168969
C        0.587813249   0.932070463   0.013219174
C        0.837235514   0.932056451   0.005922340
O        0.428318760   0.463411600   0.114031940
O        0.592769190   0.691886293   0.008257307
H        0.426823873   0.627607879   0.038894912
K_POINTS automatic 
  4 4 1   0 0 0 

