 &CONTROL
                 calculation = 'bands' ,
                      outdir = './tmp/' ,
                  pseudo_dir = '/home/deleted/pseudo_psl' ,
                      prefix = 'GF_op' ,
                   verbosity = 'high' ,
               etot_conv_thr = 1.0D-5 ,
               forc_conv_thr = 4.0D-4 ,
                       nstep = 1000 ,
                    dipfield = .true. ,
 /
 &SYSTEM
                       ibrav = 4,
                           A = 9.88 ,
                           C = 15 ,
                         nat = 34,
                        ntyp = 4,
                     ecutwfc = 40.424239707 ,
                     ecutrho = 404.24239707 ,
                 occupations = 'tetrahedra' ,
                     degauss = 0.01 ,
				   input_dft = 'vdW-DF' ,
 /
 &ELECTRONS
            electron_maxstep = 50001,
                    conv_thr = 1.0D-6 ,
                 mixing_mode = 'local-TF' ,
                 mixing_beta = 0.5 ,
 /
ATOMIC_SPECIES
    C   12.01100  C.revpbe-n-kjpaw_psl.0.1.UPF 
    F   18.99800  F.revpbe-n-kjpaw_psl.0.1.UPF 
    O   15.99940  O.revpbe-n-kjpaw_psl.0.1.UPF 
	H   1.00800   H.revpbe-kjpaw_psl.0.1.UPF
ATOMIC_POSITIONS crystal 
C       -0.002393820  -0.001421504  -0.004726847
C        0.247591412  -0.000790071   0.004856265
C        0.497750967   0.001100921   0.008990513
C        0.745471299  -0.002003895  -0.001644177
C       -0.002744040   0.248483282   0.003164135
C        0.079613740   0.164501557   0.005955532
C        0.244130184   0.245011031   0.019790443
C        0.329944916   0.165673723   0.007672427
C        0.497283300   0.251094164  -0.005984863
C        0.580761722   0.166719301  -0.002425959
C        0.746978527   0.249221096  -0.005294028
C        0.830399749   0.165088987  -0.002588525
C       -0.001421600   0.499147169  -0.002060138
C        0.082084971   0.416008177   0.008568054
C        0.245776311   0.498991606   0.032006387
C        0.315173925   0.402034962   0.054192856
C        0.580824591   0.410069311  -0.026538390
C        0.744770195   0.496603528  -0.023419819
C        0.831089311   0.415682149  -0.010946341
C       -0.002121360   0.749165751  -0.008633367
C        0.081004701   0.665558863   0.001022609
C        0.246633497   0.748809344   0.014421384
C        0.327160307   0.666263680   0.034994925
C        0.495651041   0.762551993   0.054861028
F        0.615449910   0.688448321  -0.074331041
C        0.762215696   0.757897213  -0.038654279
C        0.833019961   0.666708607  -0.026319805
C        0.080285174   0.915182744  -0.002514268
C        0.330434779   0.916446125   0.010360949
C        0.581554772   0.919966399   0.015581433
C        0.831802474   0.916518831  -0.015441652
O        0.567625140   0.720819879   0.107736843
O        0.410788092   0.433496280   0.123589222
H        0.474950322   0.552933193   0.131533372
K_POINTS crystal_b 
4
0.0000000000    0.0000000000    0.0000000000 17
0.0000000000    0.5000000000    0.0000000000 10
0.3333333333    0.3333333333    0.0000000000 20
0.0000000000    0.0000000000    0.0000000000 1

