 &CONTROL
                 calculation = 'bands' ,
                      outdir = './tmp/' ,
                  pseudo_dir = '/home/deleted/pseudo_psl' ,
                      prefix = 'GF_op' ,
                   verbosity = 'high' ,
               etot_conv_thr = 1.0D-5 ,
               forc_conv_thr = 4.0D-4 ,
                       nstep = 1000 ,
                    dipfield = .true. ,
 /
 &SYSTEM
                       ibrav = 4,
                           A = 9.88 ,
                           C = 15 ,
                         nat = 33,
                        ntyp = 3,
                     ecutwfc = 40.424239707 ,
                     ecutrho = 404.24239707 ,
                 occupations = 'tetrahedra' ,
                     degauss = 0.01 ,
				   input_dft = 'vdW-DF' ,
 /
 &ELECTRONS
            electron_maxstep = 50001,
                    conv_thr = 1.0D-6 ,
                 mixing_mode = 'local-TF' ,
                 mixing_beta = 0.5 ,
 /
ATOMIC_SPECIES
    C   12.01100  C.revpbe-n-kjpaw_psl.0.1.UPF 
    F   18.99800  F.revpbe-n-kjpaw_psl.0.1.UPF 
    O   15.99940  O.revpbe-n-kjpaw_psl.0.1.UPF 
ATOMIC_POSITIONS crystal 
C       -0.006857828   0.001765313   0.002990989
C        0.239849096  -0.002978695   0.009660027
C        0.491063371   0.001727724   0.016320859
C        0.741812335   0.003047618   0.008798988
C       -0.005761372   0.252551967   0.005602246
C        0.076504683   0.168486678   0.007533122
C        0.244165767   0.249839097   0.008562434
C        0.321451408   0.160637518   0.008820636
C        0.487376591   0.249200422   0.007477809
C        0.573712574   0.168034609   0.008624783
C        0.740058694   0.252464704   0.007442124
C        0.825427381   0.169518127   0.006493041
C       -0.008840959   0.500446383   0.005879798
C        0.080349830   0.418519439   0.008447150
C        0.254889831   0.501389618   0.016223097
C        0.335906376   0.412157092   0.010479888
C        0.558365212   0.411857883   0.003812924
C        0.727644187   0.500186710  -0.003022734
C        0.819515645   0.418355127   0.003330071
C       -0.010378297   0.749154366   0.001007222
C        0.074146753   0.666038164   0.006997318
C        0.241488370   0.748491636   0.015707055
C        0.326628401   0.668027551   0.027777254
C        0.486782908   0.762375592   0.055376584
F        0.612627772   0.691810495  -0.067194779
C        0.756761877   0.762434957  -0.027814389
C        0.823076546   0.668535918  -0.011547413
C        0.072914540   0.915173759   0.003969695
C        0.324158383   0.915514170   0.015687356
C        0.577404874   0.922377338   0.026729849
C        0.827164716   0.921584922  -0.006093711
O        0.534118459   0.690681847   0.112377963
O        0.684967460   0.775041531   0.147357854
K_POINTS crystal_b 
4
0.0000000000    0.0000000000    0.0000000000 17
0.0000000000    0.5000000000    0.0000000000 10
0.3333333333    0.3333333333    0.0000000000 20
0.0000000000    0.0000000000    0.0000000000 1

