 &CONTROL
                 calculation = 'bands' ,
                      outdir = './tmp/' ,
                  pseudo_dir = '/home/deleted/pseudo_psl' ,
                      prefix = 'GF_op' ,
                   verbosity = 'high' ,
               forc_conv_thr = 4.0D-4 ,
                       nstep = 1000 ,
                    dipfield = .true. ,
 /
 &SYSTEM
                       ibrav = 4,
                           A = 9.88 ,
                           C = 15 ,
                         nat = 33,
                        ntyp = 3,
                     ecutwfc = 40.424239707 ,
                     ecutrho = 404.24239707 ,
                 occupations = 'tetrahedra' ,
                     degauss = 0.01 ,
				   input_dft = 'vdW-DF' ,
    nspin = 2 ,
    starting_magnetization(1) = 0.5,
    starting_magnetization(2) = 0.5,
    starting_magnetization(3) = 0.5,
 /
 &ELECTRONS
            electron_maxstep = 50001,
                    conv_thr = 1.0D-6 ,
                 mixing_mode = 'local-TF' ,
                 mixing_beta = 0.5 ,
 /
ATOMIC_SPECIES
    C   12.01100  C.revpbe-n-kjpaw_psl.0.1.UPF 
    F   18.99800  F.revpbe-n-kjpaw_psl.0.1.UPF 
    O   15.99940  O.revpbe-n-kjpaw_psl.0.1.UPF 
ATOMIC_POSITIONS (crystal)
C       -0.004048296   0.001296867  -0.002784722
C        0.242688702  -0.003333156   0.003928315
C        0.493921684   0.001243682   0.010570456
C        0.744850340   0.002730441   0.003097194
C       -0.002852013   0.252110592   0.000383358
C        0.079279899   0.167973951   0.002104831
C        0.246929295   0.249288139   0.003247305
C        0.324257705   0.160202089   0.003347578
C        0.490289104   0.248800508   0.002017286
C        0.576627661   0.167587977   0.003130851
C        0.742931172   0.252070945   0.002246661
C        0.828289042   0.168995551   0.001171863
C       -0.005905243   0.500086051   0.000754242
C        0.083239603   0.418065485   0.003432109
C        0.257592459   0.500784435   0.011075812
C        0.338467599   0.411629988   0.005310451
C        0.561422008   0.411321889  -0.001582070
C        0.730613922   0.499769241  -0.008345047
C        0.822419740   0.417923255  -0.001794191
C       -0.007512693   0.748742558  -0.004606254
C        0.076996022   0.665567247   0.001488670
C        0.244439234   0.748245606   0.009866895
C        0.329793586   0.667819264   0.022201210
C        0.489732717   0.761967008   0.049159764
F        0.615618856   0.691150471  -0.073393680
C        0.759704076   0.762076571  -0.033886530
C        0.825876734   0.668177974  -0.017002481
C        0.075787139   0.914753407  -0.001843644
C        0.327032735   0.915064647   0.009799143
C        0.580159868   0.921782610   0.021166283
C        0.830022055   0.921230598  -0.012182538
O        0.537663795   0.688509970   0.105766220
O        0.686294033   0.774004536   0.142589242
K_POINTS automatic 
  20 20 1   0 0 0 

