 &CONTROL
                 calculation = 'bands' ,
                      outdir = './tmp/' ,
                  pseudo_dir = '/home/deleted/pseudo_psl' ,
                      prefix = 'GCl_ip' ,
                   verbosity = 'high' ,
               etot_conv_thr = 1.0D-5 ,
               forc_conv_thr = 4.0D-4 ,
                       nstep = 1000 ,
                    dipfield = .true. ,
 /
 &SYSTEM
                       ibrav = 4,
                           A = 9.88 ,
                           C = 15 ,
                         nat = 34,
                        ntyp = 4,
                     ecutwfc = 40.424239707 ,
                     ecutrho = 404.24239707 ,
                 occupations = 'tetrahedra' ,
                     degauss = 0.01 ,
				   input_dft = 'vdW-DF' ,
    nspin = 2 ,
    starting_magnetization(1) = 0.5,
    starting_magnetization(2) = 0.5,
    starting_magnetization(3) = 0.5,
 /
 &ELECTRONS
            electron_maxstep = 50001,
                    conv_thr = 1.0D-6 ,
                 mixing_mode = 'local-TF' ,
                 mixing_beta = 0.5 ,
 /
ATOMIC_SPECIES
    C   12.01100  C.revpbe-n-kjpaw_psl.0.1.UPF 
   Cl   35.45200  Cl.revpbe-n-kjpaw_psl.0.3.0.UPF 
    O   15.99940  O.revpbe-n-kjpaw_psl.0.1.UPF 
    H   1.008000  H.revpbe-kjpaw_psl.0.1.UPF
ATOMIC_POSITIONS (crystal)
C        0.002574561   0.001872626  -0.000667118
C        0.255160151   0.008178694  -0.000407297
C        0.501412952   0.001891171  -0.000803668
C        0.749391260  -0.003341316  -0.001331361
C       -0.000583833   0.249333222  -0.000093256
C        0.085176279   0.169324229  -0.000797412
C        0.253769477   0.257125830  -0.002072155
C        0.338345121   0.174510241  -0.001898433
C        0.505523052   0.257189134  -0.002399584
C        0.586267262   0.169358853  -0.001005288
C        0.752028184   0.249329727  -0.000193551
C        0.832550502   0.162996996  -0.000217754
C        0.001835986   0.501563103   0.000995281
C        0.080081731   0.415856122   0.000308032
C        0.244430896   0.500860494  -0.001469770
C        0.324664019   0.421666677  -0.003581668
C        0.599208677   0.421711985  -0.003992643
C        0.758585364   0.500863861  -0.001655390
C        0.837883010   0.415833934   0.000230867
C        0.007658641   0.755308404   0.000481678
C        0.085851694   0.669572712   0.000973208
C        0.249780227   0.755279546   0.000303312
C        0.329060106   0.670216656  -0.001262231
C        0.488440811   0.749386751  -0.002741139
Cl       0.543518718   0.584764301  -0.005615872
C        0.763039676   0.749339892  -0.002598858
C        0.843301082   0.670199096  -0.001073411
C        0.088307604   0.921848961  -0.000042565
C        0.335666659   0.921833919  -0.000172282
C        0.582139876   0.913976984  -0.001626474
C        0.833944502   0.913964124  -0.001531706
O        0.526840285   0.474892252   0.203124329
O        0.472976430   0.581040788   0.210028153
H        0.473836348   0.598786136   0.274582420
K_POINTS automatic 
  20 20 1   0 0 0 

