 &CONTROL
                 calculation = 'nscf' ,
                      outdir = './tmp/' ,
                  pseudo_dir = '/home/deleted/pseudo_psl' ,
                      prefix = 'GF_ip' ,
                   verbosity = 'high' ,
               etot_conv_thr = 1.0D-5 ,
               forc_conv_thr = 4.0D-4 ,
                       nstep = 1000 ,
                    dipfield = .true. ,
 /
 &SYSTEM
                       ibrav = 4,
                           A = 9.88 ,
                           C = 15 ,
                         nat = 34,
                        ntyp = 4,
                     ecutwfc = 40.424239707 ,
                     ecutrho = 404.24239707 ,
                 occupations = 'tetrahedra' ,
                     degauss = 0.01 ,
				   input_dft = 'vdW-DF' ,
    nspin = 2 ,
    starting_magnetization(1) = 0.5,
    starting_magnetization(2) = 0.5,
    starting_magnetization(3) = -0.60,
 /
 &ELECTRONS
            electron_maxstep = 50001,
                    conv_thr = 1.0D-6 ,
                 mixing_mode = 'local-TF' ,
                 mixing_beta = 0.5 ,
 /
ATOMIC_SPECIES
    C   12.01100  C.revpbe-n-kjpaw_psl.0.1.UPF 
    F   18.99800  F.revpbe-n-kjpaw_psl.0.1.UPF 
    O   15.99940  O.revpbe-n-kjpaw_psl.0.1.UPF 
    H   1.008000  H.revpbe-kjpaw_psl.0.1.UPF
ATOMIC_POSITIONS (crystal)
C        0.000139424  -0.040653103   0.015174309
C        0.245922220  -0.046337893   0.014456578
C        0.496991099  -0.044878657   0.012301609
C        0.752066663  -0.039594606   0.007191847
C        0.003133250   0.210073852   0.001383788
C        0.084351737   0.125133464   0.005494074
C        0.251561752   0.206143922   0.005849550
C        0.328206385   0.117907089   0.012853998
C        0.494308392   0.208970887   0.016374485
C        0.583971334   0.125268629   0.039706016
C        0.752045952   0.210811733   0.008497158
C        0.834905646   0.128298410   0.003783819
C        0.000133079   0.457246025   0.000129698
C        0.089320765   0.375574551  -0.002511313
C        0.263970406   0.457162166  -0.007672866
C        0.344197951   0.369340236  -0.000088933
C        0.563535757   0.367388008   0.010193226
C        0.737638806   0.458774466   0.013054138
C        0.828941960   0.374462846   0.004586297
C       -0.003361726   0.703725268   0.015138902
C        0.081965581   0.623090021   0.004774589
C        0.250018758   0.706089875   0.000804378
C        0.336438317   0.626346532  -0.013903992
C        0.495858118   0.721565545  -0.030225309
F        0.571230104   0.655657686  -0.073032919
C        0.757179324   0.714751808   0.052878980
C        0.829562863   0.621403883   0.023492285
C        0.080407641   0.872174123   0.017096362
C        0.332208709   0.871492052   0.008932210
C        0.582300343   0.878792190  -0.003996945
C        0.833976310   0.880579430   0.021293138
O        0.647469024   0.661795591   0.106309060
O        0.602377192   1.130161105   0.139257236
H        0.497679776   1.073104714   0.165054059
K_POINTS automatic 
  20 20 1   0 0 0 

