 &CONTROL
                 calculation = 'scf' ,
                      outdir = './tmp/' ,
                  pseudo_dir = '/home/deleted/pseudo_psl' ,
                      prefix = 'GCl_op' ,
                   verbosity = 'high' ,
               etot_conv_thr = 1.0D-5 ,
               forc_conv_thr = 4.0D-4 ,
                       nstep = 1000 ,
                    dipfield = .true. ,
 /
 &SYSTEM
                       ibrav = 4,
                           A = 9.88 ,
                           C = 15 ,
                         nat = 34,
                        ntyp = 4,
                     ecutwfc = 40.424239707 ,
                     ecutrho = 404.24239707 ,
                 occupations = 'smearing' ,
                     degauss = 0.01 ,
				   input_dft = 'vdW-DF' ,
 /
 &ELECTRONS
            electron_maxstep = 50001,
                    conv_thr = 1.0D-6 ,
                 mixing_mode = 'local-TF' ,
                 mixing_beta = 0.5 ,
 /
ATOMIC_SPECIES
    C   12.01100  C.revpbe-n-kjpaw_psl.0.1.UPF 
   Cl   35.45200  Cl.revpbe-n-kjpaw_psl.0.3.0.UPF 
    O   15.99940  O.revpbe-n-kjpaw_psl.0.1.UPF 
    H   1.008000  H.revpbe-kjpaw_psl.0.1.UPF
ATOMIC_POSITIONS crystal 
C       -0.008961983  -0.009430836  -0.004421115
C        0.236445447  -0.016054406  -0.012233872
C        0.488476355  -0.009309565  -0.003722588
C        0.742822250  -0.003722803   0.017630171
C       -0.008092538   0.240900886  -0.003347236
C        0.074362573   0.156875912  -0.007681123
C        0.241507404   0.236640511  -0.011722592
C        0.317928292   0.146902522  -0.013917473
C        0.484094038   0.236681680  -0.011507012
C        0.571408667   0.156958445  -0.007236803
C        0.737872763   0.240899543  -0.003027260
C        0.824187831   0.159477491   0.002280113
C       -0.011308913   0.488468630  -0.003913007
C        0.078490654   0.406392075  -0.003634148
C        0.252350641   0.487137429  -0.001067335
C        0.334642128   0.398771850  -0.007205695
C        0.553095445   0.398798127  -0.007074668
C        0.723785054   0.487224316  -0.000898416
C        0.816849041   0.406395867  -0.003474244
C       -0.013838358   0.736181197  -0.005856281
C        0.071111556   0.653249701  -0.007912107
C        0.239012260   0.736246975  -0.005854037
C        0.325336424   0.655161999   0.006192061
C        0.483379353   0.752165547   0.026195016
Cl       0.580715368   0.672282535   0.087732989
C        0.757982375   0.752343342   0.026270066
C        0.818908739   0.655159840   0.006270256
C        0.069408323   0.902356774  -0.008281380
C        0.321924833   0.902392189  -0.008087658
C        0.574051713   0.912816162   0.014626915
C        0.827491047   0.912735060   0.013614213
O        0.739930854   0.987100520   0.185139602
O        0.821458160   0.913160667   0.221787095
H        0.923105289   1.002899200   0.237458072
K_POINTS automatic 
  16 16 1   0 0 0 

