 &CONTROL
                 calculation = 'relax' ,
                      outdir = './tmp/' ,
                  pseudo_dir = '/home/deleted/pseudo_psl' ,
                      prefix = 'B1_ipH' ,
                   verbosity = 'high' ,
               etot_conv_thr = 1.0D-5 ,
               forc_conv_thr = 4.0D-4 ,
                       nstep = 1000 ,
                    dipfield = .true. ,
 /
 &SYSTEM
                       ibrav = 4,
                           A = 9.88 ,
                           C = 15 ,
                         nat = 32,
                        ntyp = 2,
                     ecutwfc = 40.424239707 ,
                     ecutrho = 404.24239707 ,
                 occupations = 'smearing' ,
                     degauss = 0.01 ,
				   input_dft = 'vdW-DF' ,
    nspin = 2 ,
    starting_magnetization(1) = 0.5,
	starting_magnetization(2) = 0.5,
 /
 &ELECTRONS
            electron_maxstep = 50001,
                    conv_thr = 1.0D-6 ,
                 mixing_mode = 'local-TF' ,
                 mixing_beta = 0.5 ,
 /
 &IONS
                ion_dynamics = 'bfgs' ,
 /
ATOMIC_SPECIES
    C   12.01100  C.revpbe-n-kjpaw_psl.0.1.UPF 
    O   15.99940  O.revpbe-n-kjpaw_psl.0.1.UPF 
ATOMIC_POSITIONS crystal 
C        0.001581187  -0.000308016   0.000000115
C        0.255068321   0.010145792  -0.000001202
C        0.498103302  -0.000312604  -0.000000184
C        0.746724684  -0.006548580  -0.000001272
C       -0.003167959   0.245956978   0.000000485
C        0.079535335   0.164365503  -0.000000194
C        0.249840488   0.251914897  -0.000001324
C        0.335713420   0.171415544  -0.000000563
C        0.502068867   0.251913142   0.000000710
C        0.584834109   0.164368744   0.000000432
C        0.749126969   0.245957838   0.000000683
C        0.827921030   0.155842622  -0.000000070
C       -0.002160924   0.495682344  -0.000000122
C        0.077029547   0.413910205  -0.000000290
C        0.233399373   0.495670140  -0.000000546
C        0.315066898   0.412842051   0.000000230
C        0.597760361   0.412837881   0.000000445
C        0.762293665   0.495682453   0.000001444
C        0.836877687   0.413906091   0.000001221
C        0.006374761   0.752410318   0.000000161
C        0.085322564   0.670642890   0.000000031
C        0.246032823   0.752409754  -0.000000444
C        0.318214444   0.669275600  -0.000001779
C        0.481180030   0.746294503  -0.000000718
O        0.614620938   0.600922204  -0.000003678
O        0.486300217   0.600924762   0.000006424
C        0.765116286   0.746291042   0.000000454
C        0.851063175   0.669276767   0.000001151
C        0.086076646   0.920190843  -0.000000037
C        0.334118980   0.920191811  -0.000000951
C        0.580913864   0.911298758  -0.000000415
C        0.830382236   0.911294394  -0.000000196   
K_POINTS automatic 
  4 4 1   0 0 0 

