 &CONTROL
                 calculation = 'scf' ,
                      outdir = './tmp/' ,
                  pseudo_dir = '/home/deleted/pseudo_psl' ,
                      prefix = 'GI_op' ,
                   verbosity = 'high' ,
               etot_conv_thr = 1.0D-5 ,
               forc_conv_thr = 4.0D-4 ,
                       nstep = 1000 ,
                    dipfield = .true. ,
 /
 &SYSTEM
                       ibrav = 4,
                           A = 9.88 ,
                           C = 15 ,
                         nat = 34,
                        ntyp = 4,
                     ecutwfc = 40.424239707 ,
                     ecutrho = 404.24239707 ,
                 occupations = 'smearing' ,
                     degauss = 0.01 ,
				   input_dft = 'vdW-DF' ,
 /
 &ELECTRONS
            electron_maxstep = 50001,
                    conv_thr = 1.0D-6 ,
                 mixing_mode = 'local-TF' ,
                 mixing_beta = 0.5 ,
 /
ATOMIC_SPECIES
    C   12.01100  C.revpbe-n-kjpaw_psl.0.1.UPF 
    I  126.90400  I.revpbe-n-kjpaw_psl.0.2.UPF 
    O   15.99940  O.revpbe-n-kjpaw_psl.0.1.UPF 
    H   1.008000  H.revpbe-kjpaw_psl.0.1.UPF
ATOMIC_POSITIONS crystal 
C       -0.001717128   0.000120089  -0.005120979
C        0.244541037  -0.010241296  -0.004695492
C        0.501136967   0.000065770  -0.004812175
C        0.757531010   0.015756441  -0.005115575
C        0.007643904   0.256947687  -0.005059549
C        0.084830284   0.167506723  -0.004917152
C        0.251778305   0.244120690  -0.004971817
C        0.325557568   0.151811296  -0.004545910
C        0.491620696   0.244062628  -0.004650487
C        0.581953152   0.167464978  -0.004556423
C        0.748601057   0.256939642  -0.004743044
C        0.838567105   0.177812198  -0.004770907
C        0.000827358   0.502354295  -0.005682219
C        0.096318934   0.421689058  -0.005689973
C        0.273579770   0.499262623  -0.006273288
C        0.351973979   0.406046220  -0.005733857
C        0.553300597   0.406097887  -0.005293361
C        0.724984495   0.499322347  -0.005737523
C        0.824676695   0.421668260  -0.005313690
C       -0.013248984   0.745851697  -0.005762443
C        0.082182319   0.665107013  -0.005777359
C        0.258380487   0.745808012  -0.005697755
C        0.358061356   0.668131860  -0.006339168
C        0.529802698   0.761431448  -0.006181564
I        0.671515891   0.727924257   0.253269813
C        0.731044910   0.761489058  -0.006495847
C        0.809441352   0.668221940  -0.006309606
C        0.075433791   0.910609216  -0.005140826
C        0.334487903   0.910607513  -0.004974898
C        0.591478370   0.923448789  -0.005364589
C        0.831340521   0.923506565  -0.005718089
O        0.330797623   0.542472708   0.209039173
O        0.435097827   0.559406026   0.281476178
H        0.301150591   0.620820086   0.224684647
K_POINTS automatic 
  16 16 1   0 0 0 

