 &CONTROL
                 calculation = 'bands' ,
                      outdir = './tmp/' ,
                  pseudo_dir = '/home/deleted/pseudo_psl' ,
                      prefix = 'GI_ip' ,
                   verbosity = 'high' ,
               etot_conv_thr = 1.0D-5 ,
               forc_conv_thr = 4.0D-4 ,
                       nstep = 1000 ,
                    dipfield = .true. ,
 /
 &SYSTEM
                       ibrav = 4,
                           A = 9.88 ,
                           C = 15 ,
                         nat = 32,
                        ntyp = 3,
                     ecutwfc = 40.424239707 ,
                     ecutrho = 404.24239707 ,
                 occupations = 'tetrahedra' ,
                     degauss = 0.01 ,
				   input_dft = 'vdW-DF' ,
    nspin = 2 ,
    starting_magnetization(1) = 0.5,
    starting_magnetization(2) = 0.5,
    starting_magnetization(3) = 0.5,
 /
 &ELECTRONS
            electron_maxstep = 50001,
                    conv_thr = 1.0D-6 ,
                 mixing_mode = 'local-TF' ,
                 mixing_beta = 0.5 ,
 /
ATOMIC_SPECIES
    C   12.01100  C.revpbe-n-kjpaw_psl.0.1.UPF 
    I  126.90400  I.revpbe-n-kjpaw_psl.0.2.UPF 
    O   15.99940  O.revpbe-n-kjpaw_psl.0.1.UPF 
ATOMIC_POSITIONS (crystal)
C       -0.001040191  -0.000535117  -0.002273568
C        0.253394841   0.005816961   0.000198293
C        0.500838714   0.003675682   0.009884625
C        0.746396679  -0.003596129   0.004713188
C       -0.002926162   0.248423927   0.008107394
C        0.080459359   0.165970269   0.003911131
C        0.246904138   0.251534176  -0.007098481
C        0.334925034   0.171965230  -0.011514758
C        0.502758823   0.255652804  -0.015737200
C        0.584264349   0.169975127  -0.002146203
C        0.749942157   0.250163468   0.003096178
C        0.830599247   0.163553218   0.005529266
C        0.000038066   0.501453624   0.013209523
C        0.078437811   0.415054909   0.016823299
C        0.244572947   0.500527646   0.016467524
C        0.313149651   0.414284651  -0.012313309
C        0.598580836   0.419436009  -0.026555242
C        0.758375917   0.501247714  -0.016089448
C        0.836052863   0.416963640   0.002046663
C        0.005951352   0.753993366   0.000327157
C        0.085188339   0.668775479   0.010690582
C        0.250538563   0.753538204   0.017036690
C        0.329562982   0.668430000   0.027725591
C        0.494123116   0.758339506   0.057054231
I        0.525287456   0.576096760  -0.082213442
C        0.767591921   0.754066791  -0.033415619
C        0.843503314   0.671156527  -0.017371810
C        0.085944118   0.920042732  -0.000958691
C        0.334000457   0.921421793   0.011127230
C        0.582482708   0.920260631   0.020583704
C        0.831681891   0.913578368  -0.010631287
O        0.554198257   0.705979493   0.109786788
K_POINTS automatic 
  20 20 1   0 0 0 

