 &CONTROL
                 calculation = 'relax' ,
                      outdir = './tmp/' ,
                  pseudo_dir = '/home/deleted/pseudo_psl' ,
                      prefix = 'GF_ip' ,
                   verbosity = 'high' ,
               etot_conv_thr = 1.0D-5 ,
               forc_conv_thr = 4.0D-4 ,
                       nstep = 1000 ,
                    dipfield = .true. ,
 /
 &SYSTEM
                       ibrav = 4,
                           A = 9.88 ,
                           C = 15 ,
                         nat = 34,
                        ntyp = 4,
                     ecutwfc = 40.424239707 ,
                     ecutrho = 404.24239707 ,
                 occupations = 'smearing' ,
                     degauss = 0.01 ,
				   input_dft = 'vdW-DF' ,
 /
 &ELECTRONS
            electron_maxstep = 50001,
                    conv_thr = 1.0D-6 ,
                 mixing_mode = 'local-TF' ,
                 mixing_beta = 0.5 ,
 /
 &IONS
                ion_dynamics = 'bfgs' ,
 /
ATOMIC_SPECIES
    C   12.01100  C.revpbe-n-kjpaw_psl.0.1.UPF 
    F   18.99800  F.revpbe-n-kjpaw_psl.0.1.UPF 
    O   15.99940  O.revpbe-n-kjpaw_psl.0.1.UPF 
    H   1.008000  H.revpbe-kjpaw_psl.0.1.UPF
ATOMIC_POSITIONS crystal 
C        0.009973009  -0.001155740   0.016795647
C        0.260556851  -0.004499464   0.017417661
C        0.508672990  -0.004628433  -0.001633292
C        0.758296381  -0.006099653  -0.007144259
C        0.003779807   0.245219334   0.011256417
C        0.091379588   0.164473706   0.016759181
C        0.258255868   0.241005854   0.023459437
C        0.340543983   0.160092465   0.017457002
C        0.506168879   0.246472806   0.001809007
C        0.591662597   0.163397600  -0.006941240
C        0.756367304   0.249891741  -0.012017973
C        0.840473546   0.162883371  -0.004809959
C        0.003849327   0.499409320   0.009527559
C        0.088891199   0.412412682   0.012316172
C        0.257956417   0.489713326   0.008130972
C        0.349196781   0.406389421   0.026973411
C        0.577419598   0.407744167   0.001858614
C        0.745064396   0.497996413   0.011095439
C        0.834855867   0.416460826   0.001038666
C        0.007879184   0.749449428   0.017162807
C        0.091117739   0.665588707   0.014485960
C        0.258983222   0.744403083   0.013680413
C        0.338798691   0.656118283  -0.001610184
C        0.495181107   0.747094554  -0.032679337
F        0.568899346   0.679577332  -0.075851567
C        0.771143115   0.752896879   0.049122677
C        0.841914704   0.665854106   0.019004375
C        0.094856183   0.917358854   0.022809371
C        0.344787288   0.911761946   0.011175927
C        0.587981864   0.909421176  -0.016972927
C        0.842124489   0.915515801   0.013086159
O        0.667573523   0.706354813   0.109474650
O        0.340338793   0.389258369   0.125165138
H        0.381942471   0.452332370   0.170768561
K_POINTS automatic 
  4 4 1   0 0 0 

