 &CONTROL
                 calculation = 'scf' ,
                      outdir = './tmp/' ,
                  pseudo_dir = '/home/deleted/pseudo_psl' ,
                      prefix = 'GBr_ip' ,
                   verbosity = 'high' ,
               etot_conv_thr = 1.0D-5 ,
               forc_conv_thr = 4.0D-4 ,
                       nstep = 1000 ,
                    dipfield = .true. ,
 /
 &SYSTEM
                       ibrav = 4,
                           A = 9.88 ,
                           C = 15 ,
                         nat = 33,
                        ntyp = 3,
                     ecutwfc = 40.424239707 ,
                     ecutrho = 404.24239707 ,
                 occupations = 'smearing' ,
                     degauss = 0.01 ,
				   input_dft = 'vdW-DF' ,
 /
 &ELECTRONS
            electron_maxstep = 50001,
                    conv_thr = 1.0D-6 ,
                 mixing_mode = 'local-TF' ,
                 mixing_beta = 0.5 ,
 /
ATOMIC_SPECIES
    C   12.01100  C.revpbe-n-kjpaw_psl.0.1.UPF 
   Br   79.90350  Br.revpbe-n-kjpaw_psl.0.2.UPF 
    O   15.99940  O.revpbe-n-kjpaw_psl.0.1.UPF 
ATOMIC_POSITIONS crystal 
C        0.005676548   0.007604837  -0.001475349
C        0.258066195   0.014193572   0.000403342
C        0.503922199   0.007267399  -0.003935210
C        0.751857357   0.001979144  -0.009088675
C        0.001753221   0.254498956   0.000737255
C        0.087669857   0.174764724  -0.003871553
C        0.255365705   0.261982350  -0.012269670
C        0.340898312   0.180046327  -0.008831541
C        0.508459317   0.261812853  -0.007810311
C        0.589078276   0.174422629  -0.001433730
C        0.754657200   0.254339332   0.003993504
C        0.834864844   0.167829077   0.000222476
C        0.004861470   0.506947261   0.012644564
C        0.082463523   0.421203467   0.004030509
C        0.244841955   0.506084532  -0.009940080
C        0.321804517   0.424980685  -0.023484978
C        0.604581837   0.425552098  -0.011092530
C        0.762200937   0.506029442   0.003362842
C        0.840761049   0.420814293   0.010834361
C        0.010957905   0.761213778   0.010838019
C        0.088918069   0.675076752   0.012684379
C        0.252273198   0.760815716   0.004095655
C        0.329749228   0.675949195  -0.009987694
C        0.487792555   0.757048854  -0.023651195
Br       0.548139686   0.590974307  -0.043288967
C        0.770085992   0.756490731  -0.011309123
C        0.847191116   0.676012736   0.003295743
C        0.091331033   0.927685975   0.004051281
C        0.338278374   0.927524353   0.000841954
C        0.584389948   0.920076672  -0.012530941
C        0.837674651   0.920221167  -0.008032286
O        0.522964815   0.595766210   0.149502146
O        0.398917916   0.589003805   0.180495805
K_POINTS automatic 
  16 16 1   0 0 0 

