 &CONTROL
                 calculation = 'scf' ,
                      outdir = './tmp/' ,
                  pseudo_dir = '/home/deleted/pseudo_psl' ,
                      prefix = 'GBr_op' ,
                   verbosity = 'high' ,
               etot_conv_thr = 1.0D-5 ,
               forc_conv_thr = 4.0D-4 ,
                       nstep = 1000 ,
                    dipfield = .true. ,
 /
 &SYSTEM
                       ibrav = 4,
                           A = 9.88 ,
                           C = 15 ,
                         nat = 34,
                        ntyp = 4,
                     ecutwfc = 40.424239707 ,
                     ecutrho = 404.24239707 ,
                 occupations = 'smearing' ,
                     degauss = 0.01 ,
				   input_dft = 'vdW-DF' ,
 /
 &ELECTRONS
            electron_maxstep = 50001,
                    conv_thr = 1.0D-6 ,
                 mixing_mode = 'local-TF' ,
                 mixing_beta = 0.5 ,
 /
ATOMIC_SPECIES
    C   12.01100  C.revpbe-n-kjpaw_psl.0.1.UPF 
   Br   79.90350  Br.revpbe-n-kjpaw_psl.0.2.UPF 
    O   15.99940  O.revpbe-n-kjpaw_psl.0.1.UPF 
    H   1.008000  H.revpbe-kjpaw_psl.0.1.UPF
ATOMIC_POSITIONS crystal 
C        0.004919077   0.012519616  -0.004516433
C        0.251112372   0.002104462  -0.005020356
C        0.507716496   0.012447262  -0.004733165
C        0.764184039   0.028194120  -0.004341944
C        0.014311103   0.269367783  -0.005320053
C        0.091466560   0.179873062  -0.005262167
C        0.258353220   0.256424312  -0.006198227
C        0.332108961   0.164157306  -0.006034168
C        0.498167444   0.256416119  -0.006366467
C        0.588558055   0.179858334  -0.005453643
C        0.755279484   0.269370544  -0.005431026
C        0.845257935   0.190280589  -0.004912027
C        0.007508818   0.514779246  -0.005644593
C        0.102928904   0.434094403  -0.005789520
C        0.280225122   0.511706541  -0.006082123
C        0.358567272   0.418337757  -0.006546470
C        0.559861070   0.418428127  -0.006625578
C        0.731617864   0.511722207  -0.006120332
C        0.831378873   0.434114459  -0.005840274
C       -0.006627662   0.758209969  -0.004837564
C        0.088845002   0.677513105  -0.005148800
C        0.264983794   0.758173821  -0.004936962
C        0.364580805   0.680493421  -0.005340117
C        0.536421533   0.773863350  -0.004625302
Br       0.555301024   0.610028465   0.211205739
C        0.737564044   0.773882644  -0.004437557
C        0.816081279   0.680526639  -0.005216928
C        0.082022979   0.922968631  -0.004600039
C        0.341059643   0.922950972  -0.004756043
C        0.598141307   0.935926632  -0.004358672
C        0.837979446   0.935965483  -0.004168449
O        0.437360288   0.407398306   0.273562836
O        0.403305903   0.279557997   0.214988187
H        0.496359652   0.268540940   0.222028522
K_POINTS automatic 
  16 16 1   0 0 0 

