 &CONTROL
                 calculation = 'nscf' ,
                      outdir = './tmp/' ,
                  pseudo_dir = '/home/deleted/pseudo_psl' ,
                      prefix = 'GI_op' ,
                   verbosity = 'high' ,
               etot_conv_thr = 1.0D-5 ,
               forc_conv_thr = 4.0D-4 ,
                       nstep = 1000 ,
                    dipfield = .true. ,
 /
 &SYSTEM
                       ibrav = 4,
                           A = 9.88 ,
                           C = 15 ,
                         nat = 34,
                        ntyp = 4,
                     ecutwfc = 40.424239707 ,
                     ecutrho = 404.24239707 ,
                 occupations = 'tetrahedra' ,
                     degauss = 0.01 ,
				   input_dft = 'vdW-DF' ,
 /
 &ELECTRONS
            electron_maxstep = 50001,
                    conv_thr = 1.0D-6 ,
                 mixing_mode = 'local-TF' ,
                 mixing_beta = 0.5 ,
 /
ATOMIC_SPECIES
    C   12.01100  C.revpbe-n-kjpaw_psl.0.1.UPF 
    I  126.90400  I.revpbe-n-kjpaw_psl.0.2.UPF 
    O   15.99940  O.revpbe-n-kjpaw_psl.0.1.UPF 
    H   1.008000  H.revpbe-kjpaw_psl.0.1.UPF
ATOMIC_POSITIONS crystal 
C       -0.007200402  -0.005945496  -0.009261070
C        0.238955990  -0.016433556  -0.009001109
C        0.495594858  -0.005973327  -0.009464983
C        0.752095892   0.009895063  -0.009626355
C        0.002332433   0.251134393  -0.009147494
C        0.079337308   0.161469879  -0.009061989
C        0.246276538   0.237995413  -0.009099799
C        0.319940100   0.145602169  -0.008937453
C        0.485997846   0.237932232  -0.009115976
C        0.576436795   0.161413599  -0.009190454
C        0.743103666   0.251074861  -0.009269112
C        0.833241551   0.172129455  -0.009166108
C       -0.004592323   0.496451463  -0.009574333
C        0.091000194   0.415852620  -0.009455940
C        0.268348373   0.493396859  -0.009848037
C        0.346692246   0.399984286  -0.009576323
C        0.547560724   0.399943783  -0.009561176
C        0.719364594   0.493312270  -0.009924602
C        0.819192591   0.415786596  -0.009554862
C       -0.018895627   0.739748839  -0.009699537
C        0.076738416   0.659126684  -0.009701230
C        0.253001465   0.739801596  -0.009744817
C        0.352798629   0.662238941  -0.010168401
C        0.524592547   0.755463621  -0.010477816
I        0.564014158   0.609453216   0.239644434
C        0.725090147   0.755360540  -0.010177776
C        0.803733602   0.662123105  -0.010139878
C        0.069864709   0.904472437  -0.009233810
C        0.328985284   0.904506410  -0.009337164
C        0.585932465   0.917443484  -0.010133585
C        0.825835198   0.917413827  -0.009781673
O        0.547809805   0.813232668   0.217820989
O        0.698164849   0.955341456   0.221533239
H        0.729371264   0.970137026   0.158413145
K_POINTS automatic 
  20 20 1   0 0 0 

