 &BANDS
                      prefix = 'Br2' ,
                      outdir = './tmp/' ,
                     filband = 'Br2-bands-up' ,
                     plot_2d = .false. ,
    spin_component = 1 ,
    no_overlap = .true. ,
 /
