 &CONTROL
                 calculation = 'bands' ,
                      outdir = './tmp/' ,
                  pseudo_dir = '/home/deleted/pseudo_psl' ,
                      prefix = 'GBr_op' ,
                   verbosity = 'high' ,
               etot_conv_thr = 1.0D-5 ,
               forc_conv_thr = 4.0D-4 ,
                       nstep = 1000 ,
                    dipfield = .true. ,
 /
 &SYSTEM
                       ibrav = 4,
                           A = 9.88 ,
                           C = 15 ,
                         nat = 34,
                        ntyp = 4,
                     ecutwfc = 40.424239707 ,
                     ecutrho = 404.24239707 ,
                 occupations = 'tetrahedra' ,
                     degauss = 0.01 ,
				   input_dft = 'vdW-DF' ,
 /
 &ELECTRONS
            electron_maxstep = 50001,
                    conv_thr = 1.0D-6 ,
                 mixing_mode = 'local-TF' ,
                 mixing_beta = 0.5 ,
 /
ATOMIC_SPECIES
    C   12.01100  C.revpbe-n-kjpaw_psl.0.1.UPF 
   Br   79.90350  Br.revpbe-n-kjpaw_psl.0.2.UPF 
    O   15.99940  O.revpbe-n-kjpaw_psl.0.1.UPF 
    H   1.008000  H.revpbe-kjpaw_psl.0.1.UPF
ATOMIC_POSITIONS crystal 
C        0.000733434   0.000872032   0.000136186
C        0.246706873  -0.009669941   0.001184320
C        0.503361775   0.000717577   0.001015317
C        0.759641099   0.015580657  -0.000201358
C        0.009410777   0.257314201  -0.000318049
C        0.087061395   0.167977146   0.000008102
C        0.253888167   0.244552627   0.000274008
C        0.328011430   0.153023622   0.001164420
C        0.494130793   0.244864070   0.001232506
C        0.584195537   0.167956358   0.001131261
C        0.751148068   0.257248951   0.000489365
C        0.840894019   0.178302431   0.000043807
C        0.002845573   0.502375030  -0.000304402
C        0.097683731   0.422101166  -0.000700469
C        0.275621631   0.500163329  -0.000849593
C        0.354161666   0.407038385   0.000156356
C        0.556437093   0.407092140   0.000479907
C        0.727774001   0.500205413  -0.000229498
C        0.827548138   0.422029197   0.000007545
C       -0.010267114   0.746460309  -0.000023163
C        0.084632241   0.666235484   0.000023294
C        0.259973755   0.746554857   0.000383484
C        0.359721172   0.668519524  -0.000311242
C        0.531017999   0.761769982   0.000049982
Br       0.678797223   0.741413297   0.213801906
C        0.734075711   0.761707408   0.000665720
C        0.812339137   0.668558791  -0.000559941
C        0.078242001   0.911494857   0.000588506
C        0.336435420   0.911321821   0.001101614
C        0.593586981   0.923936602   0.000251697
C        0.833912701   0.924254929  -0.000219093
O        0.320978571   0.567377450   0.216157529
O        0.270077091   0.423851040   0.184024000
H        0.442830597   0.619731013   0.222166123
K_POINTS automatic  
4
0.0000000000    0.0000000000    0.0000000000 17
0.0000000000    0.5000000000    0.0000000000 10
0.3333333333    0.3333333333    0.0000000000 20
0.0000000000    0.0000000000    0.0000000000 1

