 &CONTROL
                 calculation = 'scf' ,
                      outdir = './tmp/' ,
                  pseudo_dir = '/home/deleted/pseudo_psl' ,
                      prefix = 'GI_ip' ,
                   verbosity = 'high' ,
               etot_conv_thr = 1.0D-5 ,
               forc_conv_thr = 4.0D-4 ,
                       nstep = 1000 ,
                    dipfield = .true. ,
 /
 &SYSTEM
                       ibrav = 4,
                           A = 9.88 ,
                           C = 15 ,
                         nat = 33,
                        ntyp = 3,
                     ecutwfc = 40.424239707 ,
                     ecutrho = 404.24239707 ,
                 occupations = 'smearing' ,
                     degauss = 0.01 ,
				   input_dft = 'vdW-DF' ,
 /
 &ELECTRONS
            electron_maxstep = 50001,
                    conv_thr = 1.0D-6 ,
                 mixing_mode = 'local-TF' ,
                 mixing_beta = 0.5 ,
 /
ATOMIC_SPECIES
    C   12.01100  C.revpbe-n-kjpaw_psl.0.1.UPF 
    I  126.90400  I.revpbe-n-kjpaw_psl.0.2.UPF 
    O   15.99940  O.revpbe-n-kjpaw_psl.0.1.UPF 
ATOMIC_POSITIONS crystal 
C        0.003139876   0.012847691   0.006484431
C        0.255559170   0.019670568   0.009149197
C        0.501260654   0.012511131   0.004586790
C        0.749294957   0.007333173  -0.004282010
C       -0.001088765   0.259424618   0.011961706
C        0.084912244   0.179822075   0.004984415
C        0.251515826   0.266337515  -0.007401046
C        0.338094532   0.184985007  -0.004446468
C        0.506209077   0.266219416  -0.004526332
C        0.586461122   0.179463992   0.006251849
C        0.751972237   0.259261561   0.013654565
C        0.832046488   0.172642864   0.009419372
C        0.002180497   0.512038696   0.027587827
C        0.079923590   0.426223666   0.018149228
C        0.241062240   0.511045781   0.000006706
C        0.315819541   0.429001293  -0.020154078
C        0.603867177   0.429480742  -0.011963750
C        0.760663012   0.510906373   0.007905071
C        0.837988622   0.425859553   0.021938398
C        0.008288343   0.766444501   0.021907869
C        0.086322327   0.680300396   0.027467825
C        0.249847337   0.766141264   0.017802684
C        0.326177441   0.681319731  -0.000202826
C        0.482961933   0.763365133  -0.020455227
I        0.545627966   0.596173341  -0.061267839
C        0.770518062   0.762812137  -0.011837571
C        0.845885987   0.681361613   0.007963728
C        0.088883934   0.933046150   0.013614188
C        0.335640734   0.932903065   0.011488029
C        0.581371420   0.925994187  -0.007587795
C        0.836133981   0.926074084  -0.004288766
O        0.527650625   0.597141566   0.139515274
O        0.410912442   0.598809732   0.176574555
K_POINTS automatic 
  16 16 1   0 0 0 

