 &BANDS
                      prefix = 'O' ,
                      outdir = './tmp/' ,
                     filband = 'O-bands' ,
                     plot_2d = .false. ,
 /
