 &CONTROL
                 calculation = 'scf' ,
                      outdir = './tmp/' ,
                  pseudo_dir = '/home/deleted/pseudo_psl' ,
                      prefix = 'GBr_op_subs' ,
                   verbosity = 'high' ,
               etot_conv_thr = 1.0D-5 ,
               forc_conv_thr = 4.0D-4 ,
                       nstep = 1000 ,
                    dipfield = .true. ,
 /
 &SYSTEM
                       ibrav = 4,
                           A = 9.88 ,
                           C = 15 ,
                         nat = 31,
                        ntyp = 2,
                     ecutwfc = 40.424239707 ,
                     ecutrho = 404.24239707 ,
                 occupations = 'smearing' ,
                     degauss = 0.01 ,
				   input_dft = 'vdW-DF' ,
 /
 &ELECTRONS
            electron_maxstep = 50001,
                    conv_thr = 1.0D-6 ,
                 mixing_mode = 'local-TF' ,
                 mixing_beta = 0.5 ,
 /
ATOMIC_SPECIES
    C   12.01100  C.revpbe-n-kjpaw_psl.0.1.UPF 
   Br   79.90350  Br.revpbe-n-kjpaw_psl.0.2.UPF 
    O   15.99940  O.revpbe-n-kjpaw_psl.0.1.UPF 
ATOMIC_POSITIONS crystal 
C       -0.002412217  -0.002062535  -0.002804178
C        0.243845455  -0.012309089  -0.002743605
C        0.500349681  -0.002062535  -0.002804178
C        0.756611720   0.013223439  -0.002762509
C        0.006705697   0.254672702  -0.003141787
C        0.084030404   0.165214522  -0.002779384
C        0.250963151   0.241944288  -0.002820860
C        0.324975433   0.149950868  -0.002505899
C        0.490981138   0.241944288  -0.002820860
C        0.581184117   0.165214522  -0.002779384
C        0.747967006   0.254672702  -0.003141787
C        0.837762264   0.175524530  -0.002852648
C        0.000022843   0.500045687  -0.004111254
C        0.095255883   0.419463115  -0.003930805
C        0.272602106   0.497254395  -0.004274718
C        0.350985393   0.404068151  -0.003448190
C        0.553082756   0.404068151  -0.003448190
C        0.724652289   0.497254395  -0.004274718
C        0.824207232   0.419463115  -0.003930805
C       -0.013651611   0.743742063  -0.003925716
C        0.081578097   0.663156194  -0.004107779
C        0.257393675   0.743742063  -0.003925716
C        0.357061073   0.665929591  -0.004327833
C        0.528524275   0.759077362  -0.003907898
Br       0.589073244   0.678146489   0.269268199
C        0.730553087   0.759077362  -0.003907898
C        0.808868517   0.665929591  -0.004327833
C        0.074906810   0.908533532  -0.003090513
C        0.333626721   0.908533532  -0.003090513
C        0.590559655   0.921117416  -0.003102417
C        0.830557760   0.921117416  -0.003102417
K_POINTS automatic 
  16 16 1   0 0 0 

