 &CONTROL
                 calculation = 'bands' ,
                      outdir = './tmp/' ,
                  pseudo_dir = '/home/deleted/pseudo_psl' ,
                      prefix = 'GCl_ip' ,
                   verbosity = 'high' ,
               etot_conv_thr = 1.0D-5 ,
               forc_conv_thr = 4.0D-4 ,
                       nstep = 1000 ,
                    dipfield = .true. ,
 /
 &SYSTEM
                       ibrav = 4,
                           A = 9.88 ,
                           C = 15 ,
                         nat = 34,
                        ntyp = 4,
                     ecutwfc = 40.424239707 ,
                     ecutrho = 404.24239707 ,
                 occupations = 'tetrahedra' ,
                     degauss = 0.01 ,
				   input_dft = 'vdW-DF' ,
 /
 &ELECTRONS
            electron_maxstep = 50001,
                    conv_thr = 1.0D-6 ,
                 mixing_mode = 'local-TF' ,
                 mixing_beta = 0.5 ,
 /
ATOMIC_SPECIES
    C   12.01100  C.revpbe-n-kjpaw_psl.0.1.UPF 
   Cl   35.45200  Cl.revpbe-n-kjpaw_psl.0.3.0.UPF 
    O   15.99940  O.revpbe-n-kjpaw_psl.0.1.UPF 
    H   1.008000  H.revpbe-kjpaw_psl.0.1.UPF
ATOMIC_POSITIONS crystal 
C        0.008365754   0.016762791   0.005506502
C        0.257903111   0.014494790   0.013497373
C        0.508120475   0.018362621   0.016860986
C        0.756561360   0.018189122   0.004044968
C        0.009352926   0.268349493   0.005809307
C        0.091172092   0.184649870   0.010085308
C        0.259267614   0.268150862   0.012955415
C        0.340906723   0.180811027   0.015931419
C        0.503565080   0.264310372   0.019978829
C        0.589980438   0.184945628   0.013289998
C        0.756527673   0.268287026   0.009815182
C        0.840209666   0.185714650   0.005040877
C        0.008501811   0.517690362   0.005703905
C        0.094465230   0.434592945   0.009094284
C        0.265776828   0.516971436   0.018247757
C        0.347116736   0.430110767   0.012334216
C        0.583288360   0.433893465   0.036737003
C        0.753987546   0.519762851   0.000215631
C        0.838176771   0.436704787   0.004548528
C        0.008520011   0.767179746   0.002204602
C        0.091250342   0.683153840   0.008681830
C        0.258155309   0.764886653   0.018280267
C        0.340520880   0.683148625   0.027971903
C        0.506025870   0.775269677   0.053555504
Cl       0.617001696   0.696918164  -0.110002925
C        0.774178268   0.777767571  -0.035068612
C        0.841962828   0.685073867  -0.011810805
C        0.091013944   0.932950497   0.006177790
C        0.341155792   0.933142835   0.018785829
C        0.593706980   0.938173681   0.020189639
C        0.842879221   0.935477897  -0.008710482
O        0.568391604   0.726040834   0.107123534
O        0.584938402   0.466914013   0.127205179
H        0.587302614   0.568040375   0.132804768
K_POINTS crystal_b 
4
0.0000000000    0.0000000000    0.0000000000 17
0.0000000000    0.5000000000    0.0000000000 10
0.3333333333    0.3333333333    0.0000000000 20
0.0000000000    0.0000000000    0.0000000000 1

