 &CONTROL
                 calculation = 'scf' ,
                      outdir = './tmp_subs/' ,
                  pseudo_dir = '/home/deleted/pseudo_psl' ,
                      prefix = 'GBr_op-subs' ,
                    dipfield = .true. ,
                   verbosity = 'high',
                       nstep = 1000,
               forc_conv_thr = 4.0D-4,
               etot_conv_thr = 1.0D-5
 /
 &SYSTEM
                       ibrav = 4,
                           A = 9.88 ,
                           C = 15 ,
                         nat = 31,
                        ntyp = 1,
                     ecutwfc = 40.424239707 ,
                     ecutrho = 404.24239707 ,
                 occupations = 'smearing' ,
                     degauss = 0.01 ,
				   input_dft = 'vdW-DF' ,
 /
 &ELECTRONS
            electron_maxstep = 50001,
                    conv_thr = 1.0D-6 ,
                 mixing_mode = 'local-TF' ,
                 mixing_beta = 0.5 ,
 /
ATOMIC_SPECIES
    C   12.01100  C.revpbe-n-kjpaw_psl.0.1.UPF 
ATOMIC_POSITIONS crystal 
C        0.000150669  -0.000150669  -0.000765070
C        0.250178500   0.000356999  -0.000216053
C        0.499698662  -0.000150669  -0.000765070
C        0.749904375  -0.000191251  -0.000596891
C        0.000191251   0.250095625  -0.000596891
C        0.083358511   0.167101516  -0.000733676
C        0.252106866   0.251437288   0.000066675
C        0.332814752   0.165629506  -0.000029859
C        0.499330421   0.251437288   0.000066675
C        0.583743004   0.167101516  -0.000733676
C        0.749904375   0.250095625  -0.000596891
C        0.833333333   0.166666667  -0.000563697
C        0.000150669   0.500301338  -0.000765070
C        0.083358511   0.416256996  -0.000733676
C        0.252106866   0.500669579   0.000066675
C        0.328074954   0.414037478   0.001817902
C        0.585962522   0.414037478   0.001817902
C        0.748562712   0.500669579   0.000066675
C        0.832898484   0.416256996  -0.000733676
C       -0.000356999   0.749821500  -0.000216053
C        0.083178686   0.666357373  -0.000332500
C        0.250178500   0.749821500  -0.000216053
C        0.332814752   0.667185248  -0.000029859
C        0.499330421   0.747893134   0.000066675
C        0.585962522   0.671925046   0.001817902
C        0.748562712   0.747893134   0.000066675
C        0.834370494   0.667185248  -0.000029859
C        0.083178686   0.916821314  -0.000332500
C        0.333642627   0.916821314  -0.000332500
C        0.583743004   0.916641489  -0.000733676
C        0.832898484   0.916641489  -0.000733676
K_POINTS automatic 
  16 16 1   0 0 0 

