 &CONTROL
                 calculation = 'relax' ,
                      outdir = './tmp/' ,
                  pseudo_dir = '/home/deleted/pseudo_psl' ,
                      prefix = 'GF_ip' ,
                   verbosity = 'high' ,
               etot_conv_thr = 1.0D-5 ,
               forc_conv_thr = 4.0D-4 ,
                       nstep = 1000 ,
                    dipfield = .true. ,
 /
 &SYSTEM
                       ibrav = 4,
                           A = 9.88 ,
                           C = 15 ,
                         nat = 34,
                        ntyp = 4,
                     ecutwfc = 40.424239707 ,
                     ecutrho = 404.24239707 ,
                 occupations = 'smearing' ,
                     degauss = 0.01 ,
				   input_dft = 'vdW-DF' ,
 /
 &ELECTRONS
            electron_maxstep = 50001,
                    conv_thr = 1.0D-6 ,
                 mixing_mode = 'local-TF' ,
                 mixing_beta = 0.5 ,
 /
 &IONS
                ion_dynamics = 'bfgs' ,
 /
ATOMIC_SPECIES
    C   12.01100  C.revpbe-n-kjpaw_psl.0.1.UPF 
    F   18.99800  F.revpbe-n-kjpaw_psl.0.1.UPF 
    O   15.99940  O.revpbe-n-kjpaw_psl.0.1.UPF 
    H   1.008000  H.revpbe-kjpaw_psl.0.1.UPF
ATOMIC_POSITIONS crystal 
C       -0.018105545  -0.022853028  -0.006449083
C        0.229179010  -0.027669225   0.000807738
C        0.481140453  -0.021593500   0.004564402
C        0.730147832  -0.020911558  -0.006507390
C       -0.016608396   0.228500459  -0.007736097
C        0.065382147   0.144546612  -0.003987076
C        0.233252309   0.225768107  -0.002131422
C        0.310749800   0.136257296  -0.000948412
C        0.476461302   0.225157795  -0.002958758
C        0.563125512   0.144575226  -0.002780854
C        0.729074099   0.228639329  -0.005240584
C        0.814762659   0.146111910  -0.006019268
C       -0.020071834   0.476023473  -0.005823449
C        0.068959038   0.393953620  -0.005046777
C        0.243543240   0.477141824   0.002642029
C        0.325398010   0.387782497  -0.001095317
C        0.546612112   0.387862012  -0.007006335
C        0.716015917   0.475837474  -0.013296663
C        0.808004925   0.394098295  -0.008303371
C       -0.022103812   0.724855655  -0.006891448
C        0.062428919   0.641253930  -0.002330730
C        0.230018203   0.722878509   0.005717210
C        0.314333122   0.642038915   0.013829889
C        0.479555636   0.735191286   0.042415276
F        0.603371469   0.668135574  -0.080462310
C        0.745874981   0.738178911  -0.038958963
C        0.811391003   0.644545230  -0.020454352
C        0.061658190   0.890598679  -0.004134718
C        0.313801116   0.891302657   0.006163171
C        0.567429360   0.899281369   0.008995273
C        0.816459655   0.896982669  -0.017482656
O        0.537430752   0.683127340   0.095856070
O        0.865416574   1.173743580   0.165626372
H        0.813056036   1.095664121   0.212469392
K_POINTS automatic 
  4 4 1   0 0 0 

