 &CONTROL
                 calculation = 'scf' ,
                      outdir = './tmp_subs/' ,
                  pseudo_dir = '/home/deleted/pseudo_psl' ,
                      prefix = 'GF_ip_subs' ,
                   verbosity = 'high' ,
               etot_conv_thr = 1.0D-5 ,
               forc_conv_thr = 4.0D-4 ,
                       nstep = 1000 ,
                    dipfield = .true. ,
 /
 &SYSTEM
                       ibrav = 4,
                           A = 9.88 ,
                           C = 15 ,
                         nat = 31,
                        ntyp = 2,
                     ecutwfc = 40.424239707 ,
                     ecutrho = 404.24239707 ,
                 occupations = 'smearing' ,
                     degauss = 0.01 ,
				   input_dft = 'vdW-DF' ,
 /
 &ELECTRONS
            electron_maxstep = 50001,
                    conv_thr = 1.0D-6 ,
                 mixing_mode = 'local-TF' ,
                 mixing_beta = 0.5 ,
 /
ATOMIC_SPECIES
    C   12.01100  C.revpbe-n-kjpaw_psl.0.1.UPF 
    F   18.99800  F.revpbe-n-kjpaw_psl.0.1.UPF 
ATOMIC_POSITIONS crystal 
C       -0.004162167  -0.000851292  -0.004554788
C        0.242578070  -0.005504962   0.002374971
C        0.493842156  -0.000752039   0.008994103
C        0.744527129   0.000470120   0.001212659
C       -0.003045690   0.249944437  -0.001720926
C        0.079220419   0.165877754   0.000123645
C        0.246886057   0.247288996   0.001284432
C        0.324165267   0.158089579   0.001682859
C        0.490091892   0.246657816   0.000382172
C        0.576463212   0.165533802   0.001392207
C        0.742810305   0.249934246   0.000156004
C        0.828155766   0.166956156  -0.000928564
C       -0.006068695   0.497897768  -0.001406023
C        0.083098425   0.415927855   0.001180580
C        0.257668135   0.498862379   0.008857235
C        0.338693076   0.409611272   0.003171358
C        0.561049389   0.409291770  -0.003354618
C        0.730357076   0.497621705  -0.010305245
C        0.822268166   0.415819756  -0.003922248
C       -0.007611387   0.746582631  -0.006499394
C        0.076930734   0.663504404  -0.000410908
C        0.244279362   0.746012138   0.008303098
C        0.329391259   0.665536734   0.020331739
C        0.489590543   0.759852012   0.047805734
F        0.615055287   0.688719294  -0.074331428
C        0.759473758   0.759779454  -0.035308406
C        0.825846467   0.665944760  -0.019009185
C        0.075664437   0.912610386  -0.003521507
C        0.326939572   0.913041354   0.008363468
C        0.580166350   0.919855057   0.019223129
C        0.829871589   0.918995793  -0.013721551
K_POINTS automatic 
  16 16 1   0 0 0 

