 &CONTROL
                 calculation = 'scf' ,
                      outdir = './tmp/' ,
                  pseudo_dir = '/home/deleted/pseudo_psl' ,
                      prefix = 'GF_ip' ,
                   verbosity = 'high' ,
               etot_conv_thr = 1.0D-5 ,
               forc_conv_thr = 4.0D-4 ,
                       nstep = 1000 ,
                    dipfield = .true. ,
 /
 &SYSTEM
                       ibrav = 4,
                           A = 9.88 ,
                           C = 15 ,
                         nat = 34,
                        ntyp = 4,
                     ecutwfc = 40.424239707 ,
                     ecutrho = 404.24239707 ,
                 occupations = 'smearing' ,
                     degauss = 0.01 ,
				   input_dft = 'vdW-DF' ,
 /
 &ELECTRONS
            electron_maxstep = 50001,
                    conv_thr = 1.0D-6 ,
                 mixing_mode = 'local-TF' ,
                 mixing_beta = 0.5 ,
 /
ATOMIC_SPECIES
    C   12.01100  C.revpbe-n-kjpaw_psl.0.1.UPF 
    F   18.99800  F.revpbe-n-kjpaw_psl.0.1.UPF 
    O   15.99940  O.revpbe-n-kjpaw_psl.0.1.UPF 
    H   1.008000  H.revpbe-kjpaw_psl.0.1.UPF
ATOMIC_POSITIONS crystal 
C       -0.014742726  -0.022371654  -0.002406628
C        0.233238863  -0.025894922   0.001821336
C        0.483993565  -0.020045683   0.010737713
C        0.731874998  -0.023531236   0.003044389
C       -0.009087966   0.231356096   0.001091256
C        0.069846603   0.146678507   0.000055444
C        0.237587103   0.227034844  -0.003424948
C        0.313967022   0.136786142  -0.001490582
C        0.479771141   0.226925698  -0.002510917
C        0.566695579   0.147036521   0.002590935
C        0.731413030   0.232217949   0.003438395
C        0.820376736   0.148680025   0.026535757
C       -0.015592470   0.477699774  -0.004106769
C        0.074228793   0.395068582  -0.002783854
C        0.248638876   0.477746760   0.000723580
C        0.330868528   0.388920311  -0.003533833
C        0.548721537   0.389420543  -0.008021732
C        0.718283658   0.477068993  -0.014142306
C        0.810132849   0.394696182  -0.005864982
C       -0.018632685   0.725578859  -0.007491949
C        0.066340077   0.641491378  -0.002638912
C        0.234845893   0.723376342   0.006047026
C        0.318296011   0.642615786   0.012575914
C        0.480921887   0.733230558   0.044697699
F        0.606935776   0.671368921  -0.078994094
C        0.749972043   0.740610585  -0.038204872
C        0.815399145   0.645953913  -0.021538800
C        0.065067346   0.891755210  -0.003089272
C        0.319140261   0.893191620   0.008692644
C        0.571438718   0.899245010   0.015228226
C        0.819317951   0.897769506  -0.013103747
O        0.533500981   0.679299116   0.100330879
O        0.834392791   1.152845245   0.127463481
H        0.729991879   1.083181565   0.151314312
K_POINTS automatic 
  16 16 1   0 0 0 

