 &CONTROL
                 calculation = 'scf' ,
                      outdir = './tmp/' ,
                  pseudo_dir = '/home/deleted/pseudo_psl' ,
                      prefix = 'GI_op' ,
                   verbosity = 'high' ,
               etot_conv_thr = 1.0D-5 ,
               forc_conv_thr = 4.0D-4 ,
                       nstep = 1000 ,
                    dipfield = .true. ,
 /
 &SYSTEM
                       ibrav = 4,
                           A = 9.88 ,
                           C = 15 ,
                         nat = 34,
                        ntyp = 4,
                     ecutwfc = 40.424239707 ,
                     ecutrho = 404.24239707 ,
                 occupations = 'smearing' ,
                     degauss = 0.01 ,
				   input_dft = 'vdW-DF' ,
 /
 &ELECTRONS
            electron_maxstep = 50001,
                    conv_thr = 1.0D-6 ,
                 mixing_mode = 'local-TF' ,
                 mixing_beta = 0.5 ,
 /
ATOMIC_SPECIES
    C   12.01100  C.revpbe-n-kjpaw_psl.0.1.UPF 
    I  126.90400  I.revpbe-n-kjpaw_psl.0.2.UPF 
    O   15.99940  O.revpbe-n-kjpaw_psl.0.1.UPF 
    H   1.008000  H.revpbe-kjpaw_psl.0.1.UPF
ATOMIC_POSITIONS crystal 
C       -0.012288315  -0.021326597  -0.004980096
C        0.233917080  -0.031797079  -0.004709131
C        0.490511512  -0.021380402  -0.006335615
C        0.746678030  -0.006253624  -0.007016079
C       -0.003428836   0.235177923  -0.005507801
C        0.074021456   0.145791911  -0.004978271
C        0.241023021   0.222546657  -0.004697497
C        0.315121838   0.130657973  -0.004812493
C        0.481105046   0.222450157  -0.005359529
C        0.571299847   0.145694375  -0.006079420
C        0.738137703   0.235156280  -0.006127549
C        0.827886488   0.156183024  -0.006534070
C       -0.009981900   0.480419715  -0.004870629
C        0.085134775   0.400017458  -0.005004597
C        0.263035553   0.477910009  -0.004871294
C        0.341082183   0.384697872  -0.004889042
C        0.543191779   0.384622737  -0.005313950
C        0.714443071   0.477838369  -0.005066400
C        0.814426359   0.399920367  -0.005256912
C       -0.023352909   0.724407377  -0.004561068
C        0.071841973   0.644025503  -0.004570251
C        0.247426291   0.724432746  -0.004840013
C        0.347336845   0.646609507  -0.005124024
C        0.518595577   0.739821890  -0.006068999
I        0.669968388   0.987146472   0.246981561
C        0.720752605   0.739782346  -0.005464279
C        0.798876831   0.646560467  -0.004928643
C        0.065131988   0.889239564  -0.004505380
C        0.323752499   0.889255076  -0.005260485
C        0.580745900   0.901916131  -0.006899339
C        0.820771918   0.901985021  -0.005869195
O        0.521544512   0.657974836   0.232415239
O        0.561936465   0.584550549   0.169966888
H        0.598846231   0.686555803   0.281223736
K_POINTS automatic 
  16 16 1   0 0 0 

