 &CONTROL
                 calculation = 'nscf' ,
                      outdir = './tmp/' ,
                  pseudo_dir = '/home/deleted/pseudo_psl' ,
                      prefix = 'MVG_txc' ,
                    dipfield = .true. ,
                   verbosity = 'high',
                       nstep = 1000,
               forc_conv_thr = 4.0D-4,
               etot_conv_thr = 1.0D-5
 /
 &SYSTEM
                       ibrav = 4,
                           A = 9.88 ,
                           C = 15 ,
                         nat = 33,
                        ntyp = 2,
                     ecutwfc = 40.424239707 ,
                     ecutrho = 404.24239707 ,
                 occupations = 'tetrahedra' ,
                     degauss = 0.01 ,
				   input_dft = 'vdW-DF' ,
    nspin = 2 ,
    starting_magnetization(1) = 0.5,
	starting_magnetization(2) = 0.5,
 /
 &ELECTRONS
            electron_maxstep = 50001,
                    conv_thr = 1.0D-6 ,
                 mixing_mode = 'local-TF' ,
                 mixing_beta = 0.5 ,
 /
 &IONS
                ion_dynamics = 'bfgs' ,
 /
ATOMIC_SPECIES
    C   12.01100  C.revpbe-n-kjpaw_psl.0.1.UPF 
    O   15.99940  O.revpbe-n-kjpaw_psl.0.1.UPF 
ATOMIC_POSITIONS crystal 
C        0.001233854   0.009480930   0.001363355
C        0.249712088   0.006990215  -0.006003829
C        0.500689604   0.009441768   0.001208259
C        0.752855895   0.013284006   0.013150159
C        0.002307196   0.260309931  -0.001098559
C        0.083540362   0.175423126  -0.003724560
C        0.249088858   0.255623818  -0.011647838
C        0.331803423   0.171163731  -0.012259049
C        0.498980379   0.255592655  -0.011749496
C        0.584332225   0.175396417  -0.003834501
C        0.750449138   0.260306964  -0.001090445
C        0.834789159   0.177137582   0.003378549
C        0.000863829   0.509295171   0.000065876
C        0.086935363   0.426373121  -0.001267505
C        0.256316704   0.508733340  -0.001539368
C        0.331870942   0.419157591  -0.013622667
C        0.579724002   0.419139315  -0.013654327
C        0.744831437   0.508715950  -0.001478606
C        0.831861939   0.426369420  -0.001211251
C       -0.001602805   0.758061810   0.000625476
C        0.083608616   0.674794438  -0.001740358
C        0.252102836   0.758070909   0.000536669
C        0.338928350   0.677149562   0.008949870
C        0.501800289   0.765374371   0.025830601
C        0.596964441   0.701389447   0.065682256
C        0.756048912   0.765421761   0.025809276
C        0.830655548   0.677141770   0.009022621
C        0.082546217   0.924438178  -0.001282179
C        0.334324743   0.924441592  -0.001392539
C        0.584731956   0.928755415   0.013765119
C        0.836490712   0.928799816   0.013829730
O        0.492942457   0.493445425  -0.028210515
O        0.556454610   0.620027021   0.133589774
K_POINTS automatic 
  20 20 1   0 0 0 

