&BANDS
	prefix = 'GI_op' ,
	outdir = './tmp/' ,
	filband = 'GI_op-up-bands' ,
	plot_2d = .false. ,
    spin_component = 1 ,
    no_overlap = .true. ,
/
