 &CONTROL
                 calculation = 'scf' ,
                      outdir = './tmp/' ,
                  pseudo_dir = '/home/deleted/pseudo_psl' ,
                      prefix = 'GI_ip' ,
                   verbosity = 'high' ,
               etot_conv_thr = 1.0D-5 ,
               forc_conv_thr = 4.0D-4 ,
                       nstep = 1000 ,
                    dipfield = .true. ,
 /
 &SYSTEM
                       ibrav = 4,
                           A = 9.88 ,
                           C = 15 ,
                         nat = 34,
                        ntyp = 4,
                     ecutwfc = 40.424239707 ,
                     ecutrho = 404.24239707 ,
                 occupations = 'smearing' ,
                     degauss = 0.01 ,
				   input_dft = 'vdW-DF' ,
 /
 &ELECTRONS
            electron_maxstep = 50001,
                    conv_thr = 1.0D-6 ,
                 mixing_mode = 'local-TF' ,
                 mixing_beta = 0.5 ,
 /
ATOMIC_SPECIES
    C   12.01100  C.revpbe-n-kjpaw_psl.0.1.UPF 
    I  126.90400  I.revpbe-n-kjpaw_psl.0.2.UPF 
    O   15.99940  O.revpbe-n-kjpaw_psl.0.1.UPF 
    H   1.008000  H.revpbe-kjpaw_psl.0.1.UPF
ATOMIC_POSITIONS crystal 
C        0.001671858   0.007596701  -0.002460335
C        0.254271479   0.014225605  -0.005966465
C        0.500257958   0.007407888  -0.003030267
C        0.748403977   0.002339685   0.007463251
C       -0.002303036   0.254229344  -0.007699617
C        0.083693144   0.174640878  -0.001815244
C        0.250719281   0.261625242   0.008191242
C        0.336871160   0.179645094   0.005745515
C        0.504969658   0.262188839   0.004454556
C        0.584920850   0.174648163  -0.004012819
C        0.750525397   0.254283203  -0.009592161
C        0.830762804   0.167539036  -0.004804165
C        0.000481832   0.506622865  -0.022121770
C        0.078708162   0.420737578  -0.014662277
C        0.241645367   0.505006764  -0.001550142
C        0.319525645   0.425655866   0.016289903
C        0.598847600   0.427023234   0.008068257
C        0.757015223   0.505535616  -0.007327111
C        0.836049222   0.420813522  -0.017183908
C        0.006605212   0.761291739  -0.017511605
C        0.084789462   0.675063549  -0.022769677
C        0.248992129   0.760910734  -0.016127853
C        0.327122673   0.676025903  -0.002516004
C        0.484008845   0.756610511   0.014917988
I        0.546827549   0.595985071   0.074501029
C        0.767851072   0.757109262   0.014593563
C        0.843235202   0.676368767  -0.005723834
C        0.087430156   0.927665576  -0.009381429
C        0.334657448   0.927530920  -0.009513347
C        0.580359328   0.920496085   0.008076158
C        0.835008977   0.920984606   0.008249524
O        0.719785415   0.751239285   0.237064957
O        0.615505083   0.789818042   0.183640098
H        0.665874841   0.726003839   0.294421401
K_POINTS automatic 
  16 16 1   0 0 0 

