 &CONTROL
                 calculation = 'relax' ,
                      outdir = './tmp/' ,
                  pseudo_dir = '/home/deleted/pseudo_psl' ,
                      prefix = 'GI_ip' ,
                   verbosity = 'high' ,
               etot_conv_thr = 1.0D-5 ,
               forc_conv_thr = 4.0D-4 ,
                       nstep = 1000 ,
                    dipfield = .true. ,
 /
 &SYSTEM
                       ibrav = 4,
                           A = 9.88 ,
                           C = 15 ,
                         nat = 34,
                        ntyp = 4,
                     ecutwfc = 40.424239707 ,
                     ecutrho = 404.24239707 ,
                 occupations = 'smearing' ,
                     degauss = 0.01 ,
				   input_dft = 'vdW-DF' ,
 /
 &ELECTRONS
            electron_maxstep = 50001,
                    conv_thr = 1.0D-6 ,
                 mixing_mode = 'local-TF' ,
                 mixing_beta = 0.5 ,
 /
 &IONS
                ion_dynamics = 'bfgs' ,
 /
ATOMIC_SPECIES
    C   12.01100  C.revpbe-n-kjpaw_psl.0.1.UPF 
    I  126.90400  I.revpbe-n-kjpaw_psl.0.2.UPF 
    O   15.99940  O.revpbe-n-kjpaw_psl.0.1.UPF 
    H   1.008000  H.revpbe-kjpaw_psl.0.1.UPF
ATOMIC_POSITIONS crystal 
C        0.002512853   0.003468051  -0.003105605
C        0.255183928   0.010367856  -0.005475804
C        0.500955198   0.003468051  -0.003105605
C        0.749146599  -0.001706800   0.005329206
C       -0.001311536   0.250276298  -0.009402299
C        0.084547166   0.170637847  -0.002507571
C        0.251591519   0.257372918   0.008332169
C        0.337777241   0.175554482   0.007576635
C        0.505781400   0.257372918   0.008332169
C        0.586090680   0.170637847  -0.002507571
C        0.751587833   0.250276298  -0.009402299
C        0.831766011   0.163532023  -0.006287284
C        0.001478997   0.502957994  -0.024257920
C        0.079321097   0.416812226  -0.017032709
C        0.241775562   0.501743252  -0.003732777
C        0.318302774   0.421262646   0.015254377
C        0.602959871   0.421262646   0.015254377
C        0.759967691   0.501743252  -0.003732777
C        0.837491128   0.416812226  -0.017032709
C        0.007735550   0.757203108  -0.017679813
C        0.085511095   0.671022189  -0.024461887
C        0.249467558   0.757203108  -0.017679813
C        0.327059538   0.672201481  -0.004711660
C        0.484345212   0.753011603   0.012585774
I        0.544455510   0.588911021   0.065259868
C        0.768666391   0.753011603   0.012585774
C        0.845141942   0.672201481  -0.004711660
C        0.088360478   0.923714039  -0.009625323
C        0.335353561   0.923714039  -0.009625323
C        0.581355525   0.916795201   0.006186153
C        0.835439675   0.916795201   0.006186153
O        0.724237919   0.816848616   0.216597877
O        0.592610698   0.816848616   0.216597877
H        0.658424309   0.761535674   0.299907411
K_POINTS automatic 
  4 4 1   0 0 0 

