 &CONTROL
                 calculation = 'nscf' ,
                      outdir = './tmp/' ,
                  pseudo_dir = '/home/deleted/pseudo_psl' ,
                      prefix = 'GF_ip' ,
                   verbosity = 'high' ,
               etot_conv_thr = 1.0D-5 ,
               forc_conv_thr = 4.0D-4 ,
                       nstep = 1000 ,
                    dipfield = .true. ,
 /
 &SYSTEM
                       ibrav = 4,
                           A = 9.88 ,
                           C = 15 ,
                         nat = 33,
                        ntyp = 3,
                     ecutwfc = 40.424239707 ,
                     ecutrho = 404.24239707 ,
                 occupations = 'tetrahedra' ,
                     degauss = 0.01 ,
				   input_dft = 'vdW-DF' ,
 /
 &ELECTRONS
            electron_maxstep = 50001,
                    conv_thr = 1.0D-6 ,
                 mixing_mode = 'local-TF' ,
                 mixing_beta = 0.5 ,
 /
ATOMIC_SPECIES
    C   12.01100  C.revpbe-n-kjpaw_psl.0.1.UPF 
    F   18.99800  F.revpbe-n-kjpaw_psl.0.1.UPF 
    O   15.99940  O.revpbe-n-kjpaw_psl.0.1.UPF 
ATOMIC_POSITIONS crystal 
C        0.003246880   0.002608433  -0.001484159
C        0.247335633  -0.005328735  -0.002624128
C        0.499361553   0.002608433  -0.001484159
C        0.754144800   0.008289601   0.002404947
C        0.004353581   0.253321460  -0.000390122
C        0.086204242   0.168741397  -0.001621267
C        0.252988755   0.247256527  -0.002273135
C        0.328728314   0.157456628  -0.002795790
C        0.494267772   0.247256527  -0.002273135
C        0.582537153   0.168741397  -0.001621267
C        0.748967877   0.253321460  -0.000390122
C        0.836126258   0.172252517   0.000576904
C       -0.000023086   0.499953829  -0.000497456
C        0.090668316   0.418535171  -0.000346714
C        0.265020788   0.497935361  -0.000058827
C        0.346961024   0.409222803  -0.001224323
C        0.562261777   0.409222803  -0.001224323
C        0.732914573   0.497935361  -0.000058827
C        0.827866854   0.418535171  -0.000346714
C       -0.002865663   0.747617165  -0.001475402
C        0.082505600   0.665011200  -0.001582009
C        0.250482827   0.747617165  -0.001475402
C        0.338703190   0.665974160   0.000615666
C        0.497771874   0.765297627   0.003248088
F        0.590683499   0.681366999   0.016897586
C        0.767525753   0.765297627   0.003248088
C        0.827270969   0.665974160   0.000615666
C        0.080662656   0.913595744  -0.002007869
C        0.332933085   0.913595744  -0.002007869
C        0.587849054   0.925016548   0.001795662
C        0.837167493   0.925016548   0.001795662
O        0.721079417   0.812043255   0.199032376
O        0.590963839   0.812043255   0.199032376
K_POINTS automatic 
  20 20 1   0 0 0 

