 &CONTROL
                 calculation = 'relax' ,
                      outdir = './tmp/' ,
                  pseudo_dir = '/home/deleted/pseudo_psl' ,
                      prefix = 'GCl_ip' ,
                   verbosity = 'high' ,
               etot_conv_thr = 1.0D-5 ,
               forc_conv_thr = 4.0D-4 ,
                       nstep = 1000 ,
                    dipfield = .true. ,
 /
 &SYSTEM
                       ibrav = 4,
                           A = 9.88 ,
                           C = 15 ,
                         nat = 34,
                        ntyp = 4,
                     ecutwfc = 40.424239707 ,
                     ecutrho = 404.24239707 ,
                 occupations = 'smearing' ,
                     degauss = 0.01 ,
				   input_dft = 'vdW-DF' ,
    nspin = 2 ,
    starting_magnetization(1) = 0.5,
    starting_magnetization(2) = 0.5,
    starting_magnetization(3) = 0.5,
	starting_magnetization(4) = 0.5,
 /
 &ELECTRONS
            electron_maxstep = 50001,
                    conv_thr = 1.0D-6 ,
                 mixing_mode = 'local-TF' ,
                 mixing_beta = 0.5 ,
 /
 &IONS
                ion_dynamics = 'bfgs' ,
 /
ATOMIC_SPECIES
    C   12.01100  C.revpbe-n-kjpaw_psl.0.1.UPF 
   Cl   35.45200  Cl.revpbe-n-kjpaw_psl.0.3.0.UPF 
    O   15.99940  O.revpbe-n-kjpaw_psl.0.1.UPF 
    H   1.008000  H.revpbe-kjpaw_psl.0.1.UPF
ATOMIC_POSITIONS (crystal)
C       -0.000378307   0.007308928   0.008922767
C        0.248822618   0.005975127  -0.003561289
C        0.499386621   0.007357805   0.009110889
C        0.751540926   0.011391139   0.021710747
C        0.000573552   0.258596651   0.009916411
C        0.081631118   0.173183228   0.003960742
C        0.244925349   0.252258183  -0.015714606
C        0.330799168   0.170012902  -0.016896000
C        0.498899965   0.252262351  -0.015627090
C        0.583168956   0.173231265   0.004095659
C        0.749633521   0.258636200   0.010012672
C        0.833778579   0.175953058   0.015999066
C        0.000169493   0.508692278   0.009963547
C        0.083549118   0.425025282   0.007646717
C        0.250570078   0.507898317  -0.004320727
C        0.313655042   0.413608545  -0.027758559
C        0.591510910   0.413605618  -0.027639436
C        0.748948533   0.507893727  -0.004355001
C        0.833111972   0.425058205   0.007671481
C       -0.002205173   0.757107823   0.004746645
C        0.083051298   0.674391561   0.004512117
C        0.251026861   0.757132824   0.004961624
C        0.337916376   0.675030613   0.006123182
C        0.502071406   0.763797323   0.019227954
Cl       0.490926948   0.490291889  -0.091904299
C        0.753447087   0.763798287   0.019045085
C        0.828818230   0.675044557   0.005883475
C        0.081891740   0.923409520   0.003447179
C        0.333223180   0.923446959   0.003630088
C        0.584809989   0.927082767   0.019158965
C        0.833959892   0.927071273   0.019025319
O        0.588949778   0.686046848   0.041539418
O        0.578817397   0.664765284   0.147465263
H        0.719796886   0.607751774   0.094112685
K_POINTS automatic 
  4 4 1   0 0 0 

