 &CONTROL
                 calculation = 'scf' ,
                      outdir = './tmp/' ,
                  pseudo_dir = '/home/deleted/pseudo_psl' ,
                      prefix = 'GI_op' ,
                   verbosity = 'high' ,
               forc_conv_thr = 4.0D-4 ,
                       nstep = 1000 ,
                    dipfield = .true. ,
 /
 &SYSTEM
                       ibrav = 4,
                           A = 9.88 ,
                           C = 15 ,
                         nat = 34,
                        ntyp = 4,
                     ecutwfc = 40.424239707 ,
                     ecutrho = 404.24239707 ,
                 occupations = 'smearing' ,
                     degauss = 0.01 ,
				   input_dft = 'vdW-DF' ,
    nspin = 2 ,
    starting_magnetization(1) = 0.5,
    starting_magnetization(2) = 0.5,
    starting_magnetization(3) = 0.05,
 /
 &ELECTRONS
            electron_maxstep = 50001,
                    conv_thr = 1.0D-6 ,
                 mixing_mode = 'local-TF' ,
                 mixing_beta = 0.5 ,
 /
ATOMIC_SPECIES
    C   12.01100  C.revpbe-n-kjpaw_psl.0.1.UPF 
    I  126.90400  I.revpbe-n-kjpaw_psl.0.2.UPF 
    O   15.99940  O.revpbe-n-kjpaw_psl.0.1.UPF 
    H   1.008000  H.revpbe-kjpaw_psl.0.1.UPF
ATOMIC_POSITIONS (crystal)
C       -0.020182731  -0.005312643  -0.004506531
C        0.226059216  -0.015746257  -0.003764520
C        0.482722502  -0.005323719  -0.003357339
C        0.739153883   0.010396160  -0.003919316
C       -0.010782024   0.251553854  -0.004014768
C        0.066367985   0.162035445  -0.004165107
C        0.233283595   0.238567946  -0.004226932
C        0.307085607   0.146335841  -0.003640725
C        0.473141562   0.238627086  -0.003572982
C        0.563523183   0.162063385  -0.003329759
C        0.730186658   0.251589075  -0.003599212
C        0.820150273   0.172459572  -0.003715041
C       -0.017586033   0.496982971  -0.004360489
C        0.077883346   0.416292939  -0.004305413
C        0.255237707   0.493877991  -0.004775857
C        0.333642594   0.400586841  -0.004773347
C        0.534805031   0.400644314  -0.004298472
C        0.706514644   0.493956928  -0.004609811
C        0.806264563   0.416321739  -0.004153861
C       -0.031715861   0.740404895  -0.004931808
C        0.063794047   0.659743994  -0.004561752
C        0.239944559   0.740399959  -0.004198782
C        0.339724316   0.662744592  -0.004488694
C        0.511483198   0.756086414  -0.004312737
I        0.907102004   0.808182305   0.254274123
C        0.712621419   0.756145709  -0.005081055
C        0.790946239   0.662837171  -0.005176250
C        0.056956165   0.905154934  -0.004518070
C        0.316051539   0.905140800  -0.003647665
C        0.573094165   0.918093214  -0.003716845
C        0.812926965   0.918137035  -0.004682628
O        0.413371093   0.577077564   0.217919197
O        0.402771058   0.447771029   0.207221273
H        0.750515973   0.750863154   0.315696396
K_POINTS automatic 
  16 16 1   0 0 0 

