 &CONTROL
                 calculation = 'relax' ,
                      outdir = './tmp/' ,
                  pseudo_dir = '/home/deleted/pseudo_psl' ,
                      prefix = 'GI_op' ,
                   verbosity = 'high' ,
               forc_conv_thr = 4.0D-4 ,
                       nstep = 1000 ,
                    dipfield = .true. ,
 /
 &SYSTEM
                       ibrav = 4,
                           A = 9.88 ,
                           C = 15 ,
                         nat = 33,
                        ntyp = 3,
                     ecutwfc = 40.424239707 ,
                     ecutrho = 404.24239707 ,
                 occupations = 'smearing' ,
                     degauss = 0.01 ,
				   input_dft = 'vdW-DF' ,
    nspin = 2 ,
    starting_magnetization(1) = 0.5,
    starting_magnetization(2) = 0.5,
    starting_magnetization(3) = 0.5,
 /
 &ELECTRONS
            electron_maxstep = 50001,
                    conv_thr = 1.0D-6 ,
                 mixing_mode = 'local-TF' ,
                 mixing_beta = 0.5 ,
    diagonalization = 'cg' ,
 /
 &IONS
                ion_dynamics = 'bfgs' ,
 /
ATOMIC_SPECIES
    C   12.01100  C.revpbe-n-kjpaw_psl.0.1.UPF 
    I  126.90400  I.revpbe-n-kjpaw_psl.0.2.UPF 
    O   15.99940  O.revpbe-n-kjpaw_psl.0.1.UPF 
ATOMIC_POSITIONS crystal 
C       -0.007360542  -0.002690661  -0.003921511
C        0.238801140  -0.013052428  -0.003448571
C        0.495387805  -0.002685885  -0.003706384
C        0.751656237   0.012522109  -0.004075285
C        0.001656067   0.253948684  -0.003538058
C        0.078995318   0.164516633  -0.003451008
C        0.245974661   0.241269171  -0.003404141
C        0.319971229   0.149250826  -0.003060757
C        0.485988485   0.241262208  -0.003166790
C        0.576229447   0.164534436  -0.003226897
C        0.742999127   0.253969517  -0.003458054
C        0.832766000   0.174833069  -0.003503783
C       -0.005025767   0.499299253  -0.004419505
C        0.090150145   0.418726874  -0.004175063
C        0.267689884   0.496518367  -0.004830221
C        0.345924217   0.403358855  -0.004144430
C        0.548194694   0.403360138  -0.003936964
C        0.719530930   0.496576259  -0.004646606
C        0.819271759   0.418745027  -0.004085277
C       -0.018609633   0.743079380  -0.004879795
C        0.076538239   0.662538966  -0.004816789
C        0.252269901   0.743080141  -0.004866879
C        0.351985705   0.665319609  -0.005437625
C        0.523335865   0.758528276  -0.005350890
I        0.752211065   0.707608651   0.258714535
C        0.726021309   0.758580709  -0.005427057
C        0.803990299   0.665348009  -0.005390617
C        0.069908562   0.907845876  -0.004045210
C        0.328616263   0.907872444  -0.003961801
C        0.585640361   0.920589100  -0.004413614
C        0.825720225   0.920604755  -0.004640036
O        0.480738007   0.636517985   0.194122123
O        0.359499657   0.561556985   0.239259624
K_POINTS automatic 
  4 4 1   0 0 0 

