 &CONTROL
                 calculation = 'bands' ,
                      outdir = './tmp/' ,
                  pseudo_dir = '/home/deleted/pseudo_psl' ,
                      prefix = 'GF_ip' ,
                   verbosity = 'high' ,
               etot_conv_thr = 1.0D-5 ,
               forc_conv_thr = 4.0D-4 ,
                       nstep = 1000 ,
                    dipfield = .true. ,
 /
 &SYSTEM
                       ibrav = 4,
                           A = 9.88 ,
                           C = 15 ,
                         nat = 34,
                        ntyp = 4,
                     ecutwfc = 40.424239707 ,
                     ecutrho = 404.24239707 ,
                 occupations = 'tetrahedra' ,
                     degauss = 0.01 ,
				   input_dft = 'vdW-DF' ,
 /
 &ELECTRONS
            electron_maxstep = 50001,
                    conv_thr = 1.0D-6 ,
                 mixing_mode = 'local-TF' ,
                 mixing_beta = 0.5 ,
 /
ATOMIC_SPECIES
    C   12.01100  C.revpbe-n-kjpaw_psl.0.1.UPF 
    F   18.99800  F.revpbe-n-kjpaw_psl.0.1.UPF 
    O   15.99940  O.revpbe-n-kjpaw_psl.0.1.UPF 
    H   1.008000  H.revpbe-kjpaw_psl.0.1.UPF
ATOMIC_POSITIONS crystal 
C       -0.016142147  -0.011945407   0.002834650
C        0.230767000  -0.017220325   0.010322292
C        0.482760900  -0.010950078   0.014572652
C        0.732122856  -0.009888250   0.003147471
C       -0.015406873   0.239140983   0.002681630
C        0.066887521   0.154810968   0.006327305
C        0.235082983   0.236576340   0.008124536
C        0.312548818   0.147064539   0.009076390
C        0.478032725   0.235930920   0.006758821
C        0.564568387   0.155215543   0.007151634
C        0.730678776   0.239424939   0.004410431
C        0.816172289   0.156767922   0.002264220
C       -0.018757558   0.486895393   0.003743293
C        0.070367000   0.404963097   0.005339000
C        0.245305259   0.488105775   0.012906293
C        0.327239921   0.398541008   0.009022275
C        0.548521032   0.398654168   0.002162583
C        0.717445950   0.486753263  -0.003326297
C        0.809826011   0.405195013   0.001428683
C       -0.019846609   0.736001670   0.001542567
C        0.064318795   0.652650321   0.006503186
C        0.231517890   0.733759863   0.015157062
C        0.316217083   0.652800229   0.023811182
C        0.481055893   0.745988838   0.052974155
F        0.604258794   0.678919892  -0.070735636
C        0.747565131   0.749016984  -0.029945461
C        0.812922640   0.655584899  -0.010437215
C        0.063669809   0.901247502   0.004487511
C        0.315028486   0.901698075   0.015869550
C        0.568915434   0.910115869   0.019490363
C        0.818210017   0.907770335  -0.008419615
O        0.825396220   0.617599062   0.167473020
O        0.538758839   0.694799185   0.107188018
H        0.743773757   0.638399200   0.188587852
K_POINTS crystal_b 
4
0.0000000000    0.0000000000    0.0000000000 17
0.0000000000    0.5000000000    0.0000000000 10
0.3333333333    0.3333333333    0.0000000000 20
0.0000000000    0.0000000000    0.0000000000 1

