 &CONTROL
                 calculation = 'bands' ,
                      outdir = './tmp/' ,
                  pseudo_dir = '/home/deleted/pseudo_psl' ,
                      prefix = 'GF_op' ,
                   verbosity = 'high' ,
               etot_conv_thr = 1.0D-5 ,
               forc_conv_thr = 4.0D-4 ,
                       nstep = 1000 ,
                    dipfield = .true. ,
 /
 &SYSTEM
                       ibrav = 4,
                           A = 9.88 ,
                           C = 15 ,
                         nat = 33,
                        ntyp = 3,
                     ecutwfc = 40.424239707 ,
                     ecutrho = 404.24239707 ,
                 occupations = 'tetrahedra' ,
                     degauss = 0.01 ,
				   input_dft = 'vdW-DF' ,
 /
 &ELECTRONS
            electron_maxstep = 50001,
                    conv_thr = 1.0D-6 ,
                 mixing_mode = 'local-TF' ,
                 mixing_beta = 0.5 ,
 /
ATOMIC_SPECIES
    C   12.01100  C.revpbe-n-kjpaw_psl.0.1.UPF 
    F   18.99800  F.revpbe-n-kjpaw_psl.0.1.UPF 
    O   15.99940  O.revpbe-n-kjpaw_psl.0.1.UPF 
ATOMIC_POSITIONS crystal 
C       -0.004189124  -0.007820103   0.012770972
C        0.243590707  -0.012818587   0.006900146
C        0.496369021  -0.007820103   0.012770972
C        0.749503570  -0.000992860   0.022657217
C       -0.001476371   0.244259393   0.010061514
C        0.078427428   0.157920119   0.008141461
C        0.243328697   0.236179804  -0.000799234
C        0.325842300   0.151684602  -0.000736874
C        0.492851109   0.236179804  -0.000799234
C        0.579492690   0.157920119   0.008141461
C        0.745735764   0.244259393   0.010061514
C        0.831539606   0.163079213   0.014822627
C       -0.003674748   0.492650504   0.010748827
C        0.084003445   0.410513297   0.008703353
C        0.253908357   0.491561036   0.005793735
C        0.327604393   0.399421285  -0.007238008
C        0.571816892   0.399421285  -0.007238008
C        0.737652680   0.491561036   0.005793735
C        0.826509851   0.410513297   0.008703353
C       -0.009057128   0.740161524   0.012574638
C        0.079096122   0.658192245   0.010731106
C        0.249218652   0.740161524   0.012574638
C        0.338332786   0.659335360   0.015975435
C        0.504888170   0.750633993   0.027197473
F        0.627754847   0.755509695  -0.114608249
C        0.745745823   0.750633993   0.027197473
C        0.821002573   0.659335360   0.015975435
C        0.076533547   0.906268986   0.010972060
C        0.329735439   0.906268986   0.010972060
C        0.582871476   0.914342245   0.021920654
C        0.831470767   0.914342245   0.021920654
O        0.592744100   0.685488199   0.058335876
O        0.484159891   0.468319784  -0.027665449
K_POINTS crystal_b 
4
0.0000000000    0.0000000000    0.0000000000 17
0.0000000000    0.5000000000    0.0000000000 10
0.3333333333    0.3333333333    0.0000000000 20
0.0000000000    0.0000000000    0.0000000000 1

