 &CONTROL
                 calculation = 'scf' ,
                      outdir = './tmp/' ,
                  pseudo_dir = '/home/deleted/pseudo_psl' ,
                      prefix = 'GF_ip' ,
                   verbosity = 'high' ,
               etot_conv_thr = 1.0D-5 ,
               forc_conv_thr = 4.0D-4 ,
                       nstep = 1000 ,
                    dipfield = .true. ,
 /
 &SYSTEM
                       ibrav = 4,
                           A = 9.88 ,
                           C = 15 ,
                         nat = 34,
                        ntyp = 4,
                     ecutwfc = 40.424239707 ,
                     ecutrho = 404.24239707 ,
                 occupations = 'smearing' ,
                     degauss = 0.01 ,
				   input_dft = 'vdW-DF' ,
 /
 &ELECTRONS
            electron_maxstep = 50001,
                    conv_thr = 1.0D-6 ,
                 mixing_mode = 'local-TF' ,
                 mixing_beta = 0.5 ,
 /
ATOMIC_SPECIES
    C   12.01100  C.revpbe-n-kjpaw_psl.0.1.UPF 
    F   18.99800  F.revpbe-n-kjpaw_psl.0.1.UPF 
    O   15.99940  O.revpbe-n-kjpaw_psl.0.1.UPF 
    H   1.008000  H.revpbe-kjpaw_psl.0.1.UPF
ATOMIC_POSITIONS crystal 
C       -0.012658643  -0.000028870   0.001968704
C        0.234336903  -0.005264808   0.009680153
C        0.486345311   0.001046317   0.014002408
C        0.735772919   0.002092699   0.002482136
C       -0.011733726   0.251128922   0.002139806
C        0.070526758   0.166912006   0.005787633
C        0.238669881   0.248560872   0.007603258
C        0.316211510   0.159054710   0.008520211
C        0.481693011   0.247956714   0.006175870
C        0.568221608   0.167255237   0.006643289
C        0.734343254   0.251429559   0.003920313
C        0.819793329   0.168745725   0.001782082
C       -0.015024983   0.498905169   0.002820614
C        0.074039735   0.416970673   0.004551007
C        0.248846663   0.500068138   0.011993791
C        0.330830623   0.410529564   0.008256673
C        0.552243475   0.410751674   0.001274912
C        0.721123289   0.498835620  -0.004492934
C        0.813520955   0.417221310   0.000785606
C       -0.016489709   0.747877239   0.000618025
C        0.067904935   0.664500279   0.005589181
C        0.235065209   0.745678280   0.014242742
C        0.319797128   0.664786024   0.022849289
C        0.484741093   0.757762037   0.051938548
F        0.607897768   0.691239666  -0.071768923
C        0.751124971   0.760863937  -0.030937380
C        0.816638274   0.667524536  -0.012291320
C        0.067179801   0.913190007   0.003606229
C        0.318568748   0.913678975   0.015213790
C        0.572495461   0.922116341   0.018736298
C        0.821879081   0.919847259  -0.009247014
O        0.851780349   0.602365280   0.171231899
O        0.542839897   0.706265884   0.105644447
H        0.778257604   0.623852398   0.203276483
K_POINTS automatic 
  16 16 1   0 0 0 

