 &CONTROL
                 calculation = 'relax' ,
                      outdir = './tmp/' ,
                  pseudo_dir = '/home/deleted/pseudo_psl' ,
                      prefix = 'GF_ip' ,
                   verbosity = 'high' ,
               etot_conv_thr = 1.0D-5 ,
               forc_conv_thr = 4.0D-4 ,
                       nstep = 1000 ,
                    dipfield = .true. ,
 /
 &SYSTEM
                       ibrav = 4,
                           A = 9.88 ,
                           C = 15 ,
                         nat = 34,
                        ntyp = 4,
                     ecutwfc = 40.424239707 ,
                     ecutrho = 404.24239707 ,
                 occupations = 'smearing' ,
                     degauss = 0.01 ,
				   input_dft = 'vdW-DF' ,
 /
 &ELECTRONS
            electron_maxstep = 50001,
                    conv_thr = 1.0D-6 ,
                 mixing_mode = 'local-TF' ,
                 mixing_beta = 0.5 ,
 /
 &IONS
                ion_dynamics = 'bfgs' ,
 /
ATOMIC_SPECIES
    C   12.01100  C.revpbe-n-kjpaw_psl.0.1.UPF 
    F   18.99800  F.revpbe-n-kjpaw_psl.0.1.UPF 
    O   15.99940  O.revpbe-n-kjpaw_psl.0.1.UPF 
    H   1.008000  H.revpbe-kjpaw_psl.0.1.UPF
ATOMIC_POSITIONS crystal 
C       -0.012540018  -0.000054934   0.002161643
C        0.234359784  -0.005481786   0.009926811
C        0.486578336   0.001101067   0.014759596
C        0.735903824   0.002069087   0.003172162
C       -0.011667539   0.251115453   0.002044479
C        0.070568348   0.166851533   0.005719653
C        0.238631388   0.248339050   0.007215303
C        0.316149785   0.158798702   0.008259620
C        0.481601819   0.247770772   0.005700456
C        0.568353746   0.167270860   0.006724653
C        0.734478921   0.251486901   0.003867888
C        0.819898460   0.168752970   0.002077555
C       -0.014956242   0.498984981   0.002469995
C        0.074094079   0.416995925   0.004143664
C        0.248913634   0.499988877   0.011634118
C        0.330805525   0.410306177   0.007628425
C        0.551815091   0.410565753   0.000629862
C        0.720822979   0.498677207  -0.004798035
C        0.813506722   0.417265971   0.000359036
C       -0.016566274   0.747743151   0.001078037
C        0.068042564   0.664550019   0.005863876
C        0.235223785   0.745660053   0.014861499
C        0.319918983   0.664635739   0.023108193
C        0.484799031   0.757354355   0.052447859
F        0.608589734   0.692372593  -0.072117348
C        0.751300309   0.761048233  -0.030722667
C        0.816486626   0.667429409  -0.012057504
C        0.067189942   0.913033093   0.003884221
C        0.318754387   0.913662094   0.015936555
C        0.572688346   0.922104160   0.019700156
C        0.822032567   0.919892640  -0.008787456
O        0.850451861   0.601374125   0.171037355
O        0.542697342   0.705083411   0.105822873
H        0.777854637   0.626971732   0.200845294
K_POINTS automatic 
  4 4 1   0 0 0 

