 &CONTROL
                 calculation = 'nscf' ,
                      outdir = './tmp/' ,
                  pseudo_dir = '/home/deleted/pseudo_psl' ,
                      prefix = 'GI_ip' ,
                   verbosity = 'high' ,
               etot_conv_thr = 1.0D-5 ,
               forc_conv_thr = 4.0D-4 ,
                       nstep = 1000 ,
                    dipfield = .true. ,
 /
 &SYSTEM
                       ibrav = 4,
                           A = 9.88 ,
                           C = 15 ,
                         nat = 34,
                        ntyp = 4,
                     ecutwfc = 40.424239707 ,
                     ecutrho = 404.24239707 ,
                 occupations = 'tetrahedra' ,
                     degauss = 0.01 ,
				   input_dft = 'vdW-DF' ,
 /
 &ELECTRONS
            electron_maxstep = 50001,
                    conv_thr = 1.0D-6 ,
                 mixing_mode = 'local-TF' ,
                 mixing_beta = 0.5 ,
 /
ATOMIC_SPECIES
    C   12.01100  C.revpbe-n-kjpaw_psl.0.1.UPF 
    I  126.90400  I.revpbe-n-kjpaw_psl.0.2.UPF 
    O   15.99940  O.revpbe-n-kjpaw_psl.0.1.UPF 
    H   1.008000  H.revpbe-kjpaw_psl.0.1.UPF
ATOMIC_POSITIONS crystal 
C       -0.004292076   0.002089078   0.004729039
C        0.248549837   0.009423432   0.008841813
C        0.494043516   0.002367118   0.005994868
C        0.742247545  -0.003397522  -0.003969906
C       -0.008335020   0.248676615   0.013262211
C        0.077383054   0.168954376   0.005837047
C        0.244171568   0.255797479  -0.005202813
C        0.331316696   0.174754326  -0.004329221
C        0.499258336   0.255793435  -0.006623344
C        0.579250973   0.169220411   0.005182080
C        0.744877822   0.248724909   0.012126242
C        0.824801102   0.161827688   0.009548040
C       -0.005523291   0.501495697   0.026580153
C        0.072258888   0.415260805   0.020682567
C        0.234357257   0.500369463   0.005939873
C        0.309425609   0.418748951  -0.013542528
C        0.597270171   0.418755899  -0.017797122
C        0.754619526   0.500500035   0.000605471
C        0.830847810   0.415545885   0.017985524
C        0.001058005   0.755829181   0.017188715
C        0.078566444   0.669826745   0.026049416
C        0.242558959   0.756072922   0.020068999
C        0.319614684   0.671065946   0.005704835
C        0.476354949   0.752695531  -0.013457238
I        0.535699849   0.585531308  -0.058693089
C        0.764694078   0.752790341  -0.018766757
C        0.839757217   0.670883077   0.000205629
C        0.081736771   0.922555695   0.011222650
C        0.328534435   0.922703219   0.012728349
C        0.574020212   0.915486715  -0.004890246
C        0.829027125   0.915326286  -0.006834453
O        0.663270076   0.604516817   0.173343522
O        0.520412282   0.559173384   0.124335412
H        0.640459594   0.505222788   0.200621387
K_POINTS automatic 
  20 20 1   0 0 0 

