 &CONTROL
                 calculation = 'bands' ,
                      outdir = './tmp/' ,
                  pseudo_dir = '/home/deleted/pseudo_psl' ,
                      prefix = 'GF_op' ,
                   verbosity = 'high' ,
               etot_conv_thr = 1.0D-5 ,
               forc_conv_thr = 4.0D-4 ,
                       nstep = 1000 ,
                    dipfield = .true. ,
 /
 &SYSTEM
                       ibrav = 4,
                           A = 9.88 ,
                           C = 15 ,
                         nat = 34,
                        ntyp = 4,
                     ecutwfc = 40.424239707 ,
                     ecutrho = 404.24239707 ,
                 occupations = 'tetrahedra' ,
                     degauss = 0.01 ,
				   input_dft = 'vdW-DF' ,
 /
 &ELECTRONS
            electron_maxstep = 50001,
                    conv_thr = 1.0D-6 ,
                 mixing_mode = 'local-TF' ,
                 mixing_beta = 0.5 ,
 /
ATOMIC_SPECIES
    C   12.01100  C.revpbe-n-kjpaw_psl.0.1.UPF 
    F   18.99800  F.revpbe-n-kjpaw_psl.0.1.UPF 
    O   15.99940  O.revpbe-n-kjpaw_psl.0.1.UPF 
	H   1.00800   H.revpbe-kjpaw_psl.0.1.UPF
ATOMIC_POSITIONS crystal 
C        0.005172636  -0.006798731   0.014671155
C        0.250213220  -0.015529572   0.016920000
C        0.501035689  -0.005651268   0.008085937
C        0.760348144   0.001782894   0.004719577
C        0.007751306   0.244795334   0.013457093
C        0.088639416   0.159468856   0.015534547
C        0.256300311   0.238934068   0.017326239
C        0.331516635   0.147187689   0.017137188
C        0.496009277   0.237150977   0.015807025
C        0.583860510   0.158709759   0.010857060
C        0.751161346   0.245429200   0.009785638
C        0.839403613   0.163621266   0.009025769
C        0.002889037   0.491212355   0.013790659
C        0.093903678   0.410094754   0.014530485
C        0.269928182   0.491490250   0.016972852
C        0.353052076   0.399095529   0.017589749
C        0.561455841   0.400077593   0.016070671
C        0.732185833   0.490115083   0.013864858
C        0.827848577   0.408730784   0.012746954
C       -0.002590276   0.738638601   0.013661608
C        0.085410676   0.655601739   0.014054447
C        0.254605698   0.735582428   0.015319886
C        0.341273536   0.655891729   0.019047438
C        0.516463534   0.754927911   0.036332863
F        0.567314689   0.873351293  -0.107055935
C        0.754810089   0.751124297   0.009504486
C        0.827345231   0.659364604   0.012302100
C        0.082487940   0.903503520   0.015923030
C        0.337652797   0.905310072   0.014342007
C        0.588748246   0.912116931  -0.010508198
C        0.839646308   0.915874299   0.009644569
O        0.595338898   0.673973966   0.005532047
O        0.545456939   0.787854243   0.129824994
H        0.478706413   0.691266439   0.162153446
K_POINTS crystal_b 
4
0.0000000000    0.0000000000    0.0000000000 17
0.0000000000    0.5000000000    0.0000000000 10
0.3333333333    0.3333333333    0.0000000000 20
0.0000000000    0.0000000000    0.0000000000 1

