 &CONTROL
                 calculation = 'scf' ,
                      outdir = './tmp/' ,
                  pseudo_dir = '/home/deleted/pseudo_psl' ,
                      prefix = 'GI_op' ,
                   verbosity = 'high' ,
               etot_conv_thr = 1.0D-5 ,
               forc_conv_thr = 4.0D-4 ,
                       nstep = 1000 ,
                    dipfield = .true. ,
 /
 &SYSTEM
                       ibrav = 4,
                           A = 9.88 ,
                           C = 15 ,
                         nat = 34,
                        ntyp = 4,
                     ecutwfc = 40.424239707 ,
                     ecutrho = 404.24239707 ,
                 occupations = 'smearing' ,
                     degauss = 0.01 ,
				   input_dft = 'vdW-DF' ,
 /
 &ELECTRONS
            electron_maxstep = 50001,
                    conv_thr = 1.0D-6 ,
                 mixing_mode = 'local-TF' ,
                 mixing_beta = 0.5 ,
 /
ATOMIC_SPECIES
    C   12.01100  C.revpbe-n-kjpaw_psl.0.1.UPF 
    I  126.90400  I.revpbe-n-kjpaw_psl.0.2.UPF 
    O   15.99940  O.revpbe-n-kjpaw_psl.0.1.UPF 
    H   1.008000  H.revpbe-kjpaw_psl.0.1.UPF
ATOMIC_POSITIONS crystal 
C       -0.000319317   0.007159361  -0.005291136
C        0.245856812  -0.003199558  -0.005337884
C        0.502396096   0.007191230  -0.005253507
C        0.758496526   0.022062930  -0.005384130
C        0.008512394   0.263622157  -0.004507763
C        0.086073343   0.174296386  -0.005066861
C        0.252933206   0.250941314  -0.005500097
C        0.327078729   0.159318437  -0.005683810
C        0.493000915   0.251087130  -0.005450058
C        0.583177189   0.174377930  -0.005037058
C        0.750047682   0.263678764  -0.004518557
C        0.839785123   0.184618013  -0.004573727
C        0.001890654   0.508890970  -0.004526383
C        0.096942723   0.428475048  -0.004506123
C        0.274727483   0.506354202  -0.004897724
C        0.352897112   0.413228910  -0.004915009
C        0.555302077   0.413245744  -0.005186145
C        0.726407728   0.506318179  -0.004849352
C        0.826388829   0.428458060  -0.004476426
C       -0.011329593   0.752953705  -0.005131465
C        0.083704164   0.672545140  -0.004932109
C        0.259147315   0.752934125  -0.005156300
C        0.358902913   0.675049143  -0.005371880
C        0.529966666   0.768231671  -0.005513664
I        0.612379179   0.753086895   0.238813335
C        0.733067973   0.768209033  -0.005472322
C        0.810965817   0.675105193  -0.005255943
C        0.077135958   0.917785427  -0.005220436
C        0.335552175   0.917783598  -0.005190965
C        0.592553884   0.930435452  -0.005632466
C        0.832755675   0.930431574  -0.005583470
O        0.373187492   0.322611789   0.187757216
O        0.498319889   0.424452984   0.237231283
H        0.454736866   0.447149234   0.291067512
K_POINTS automatic 
  16 16 1   0 0 0 

