 &CONTROL
                 calculation = 'nscf' ,
                      outdir = './tmp/' ,
                  pseudo_dir = '/home/deleted/pseudo_psl' ,
                      prefix = 'GCl_ip' ,
                   verbosity = 'high' ,
               etot_conv_thr = 1.0D-5 ,
               forc_conv_thr = 4.0D-4 ,
                       nstep = 1000 ,
                    dipfield = .true. ,
 /
 &SYSTEM
                       ibrav = 4,
                           A = 9.88 ,
                           C = 15 ,
                         nat = 34,
                        ntyp = 4,
                     ecutwfc = 40.424239707 ,
                     ecutrho = 404.24239707 ,
                 occupations = 'tetrahedra' ,
                     degauss = 0.01 ,
				   input_dft = 'vdW-DF' ,
    nspin = 2 ,
    starting_magnetization(1) = 0.5,
    starting_magnetization(2) = 0.5,
    starting_magnetization(3) = 0.5,
 /
 &ELECTRONS
            electron_maxstep = 50001,
                    conv_thr = 1.0D-6 ,
                 mixing_mode = 'local-TF' ,
                 mixing_beta = 0.5 ,
 /
ATOMIC_SPECIES
    C   12.01100  C.revpbe-n-kjpaw_psl.0.1.UPF 
   Cl   35.45200  Cl.revpbe-n-kjpaw_psl.0.3.0.UPF 
    O   15.99940  O.revpbe-n-kjpaw_psl.0.1.UPF 
    H   1.008000  H.revpbe-kjpaw_psl.0.1.UPF
ATOMIC_POSITIONS (crystal)
C        0.001038345   0.005342385  -0.000343793
C        0.253538209   0.011533318  -0.000665989
C        0.499788250   0.005072443  -0.001247243
C        0.747743295  -0.000016452  -0.001240334
C       -0.002190140   0.252717951  -0.000776282
C        0.083635036   0.172792677  -0.001137233
C        0.252256911   0.260684260  -0.002411127
C        0.336701094   0.177875296  -0.001678927
C        0.503889697   0.260382452  -0.001364861
C        0.584647813   0.172525761  -0.000645929
C        0.750417549   0.252653834  -0.000032220
C        0.830934979   0.166332676  -0.000427315
C        0.000203769   0.504959147   0.000288913
C        0.078427637   0.419247204  -0.001131597
C        0.242693832   0.504331815  -0.003414690
C        0.323034309   0.425254585  -0.004487639
C        0.597441709   0.424947800  -0.001556063
C        0.756865883   0.504214005   0.000176401
C        0.836257822   0.419200988   0.000675814
C        0.005991747   0.758689533   0.000860475
C        0.084204284   0.672954050   0.000280097
C        0.248149358   0.758648327  -0.001250756
C        0.327298299   0.673562487  -0.003493084
C        0.486706832   0.752602311  -0.004291913
Cl       0.541807854   0.588948740  -0.004272209
C        0.761359012   0.752882380  -0.000931905
C        0.841573119   0.673627222   0.000459105
C        0.086689052   0.925224656   0.000085920
C        0.334040324   0.925169300  -0.000985705
C        0.580486657   0.917142820  -0.002192114
C        0.832416931   0.917470252  -0.000791395
O        0.439346635   0.613106243   0.201672528
O        0.479882279   0.497794566   0.214203139
H        0.479167380   0.486808104   0.279389118
K_POINTS automatic 
  20 20 1   0 0 0 

