 &CONTROL
                 calculation = 'scf' ,
                      outdir = './tmp_subs/' ,
                  pseudo_dir = '/home/deleted/pseudo_psl' ,
                      prefix = 'GF_op-subs' ,
                   verbosity = 'high' ,
               etot_conv_thr = 1.0D-5 ,
               forc_conv_thr = 4.0D-4 ,
                       nstep = 1000 ,
                    dipfield = .true. ,
 /
 &SYSTEM
                       ibrav = 4,
                           A = 9.88 ,
                           C = 15 ,
                         nat = 31,
                        ntyp = 2,
                     ecutwfc = 40.424239707 ,
                     ecutrho = 404.24239707 ,
                 occupations = 'smearing' ,
                     degauss = 0.01 ,
				   input_dft = 'vdW-DF' ,
    nspin = 2 ,
    starting_magnetization(1) = 0.5,
    starting_magnetization(2) = 0.5,
 /
 &ELECTRONS
            electron_maxstep = 50001,
                    conv_thr = 1.0D-6 ,
                 mixing_mode = 'local-TF' ,
                 mixing_beta = 0.5 ,
 /
ATOMIC_SPECIES
    C   12.01100  C.revpbe-n-kjpaw_psl.0.1.UPF 
    F   18.99800  F.revpbe-n-kjpaw_psl.0.1.UPF 
ATOMIC_POSITIONS (crystal)
C        0.008270442  -0.003102323  -0.004164333
C        0.254872164  -0.007405552  -0.012544043
C        0.506246428  -0.001661410  -0.013250364
C        0.759080078   0.000527032   0.000182246
C        0.010152750   0.248299892  -0.005569117
C        0.091769164   0.163720619  -0.008239736
C        0.259466581   0.244732231  -0.010690865
C        0.336420934   0.155650321  -0.011822376
C        0.502537318   0.245397633  -0.010280984
C        0.589183377   0.164575817  -0.009501700
C        0.755432737   0.248268493  -0.007334397
C        0.841372268   0.165271684  -0.003948340
C        0.006819622   0.496269086  -0.008570565
C        0.096417055   0.413819543  -0.009172476
C        0.270126420   0.495094327  -0.013879240
C        0.351640182   0.407300450  -0.010907626
C        0.573086726   0.407728352  -0.006407112
C        0.742638814   0.495496351  -0.000394688
C        0.834908783   0.413878967  -0.005729710
C        0.004306195   0.744535274  -0.006705519
C        0.088934917   0.661330526  -0.012054053
C        0.256624013   0.744404123  -0.016766950
C        0.344924102   0.663572209  -0.020296529
C        0.504396073   0.757932770  -0.026027685
F        0.637739106   0.685783426   0.079219288
C        0.772672246   0.756706787   0.029519770
C        0.837868434   0.663936953   0.007263030
C        0.088096355   0.910493579  -0.007832368
C        0.339777364   0.910526147  -0.015619678
C        0.592425316   0.917068504  -0.012791370
C        0.842909964   0.916928261   0.009658401
K_POINTS automatic 
  16 16 1   0 0 0 

