 &CONTROL
                 calculation = 'scf' ,
                      outdir = './tmp/' ,
                  pseudo_dir = '/home/deleted/pseudo_psl' ,
                      prefix = 'GCl_op' ,
                   verbosity = 'high' ,
               etot_conv_thr = 1.0D-5 ,
               forc_conv_thr = 4.0D-4 ,
                       nstep = 1000 ,
                    dipfield = .true. ,
 /
 &SYSTEM
                       ibrav = 4,
                           A = 9.88 ,
                           C = 15 ,
                         nat = 34,
                        ntyp = 4,
                     ecutwfc = 40.424239707 ,
                     ecutrho = 404.24239707 ,
                 occupations = 'smearing' ,
                     degauss = 0.01 ,
				   input_dft = 'vdW-DF' ,
    nspin = 2 ,
    starting_magnetization(1) = 0.5,
    starting_magnetization(2) = 0.5,
    starting_magnetization(3) = 0.5,
 /
 &ELECTRONS
            electron_maxstep = 50001,
                    conv_thr = 1.0D-6 ,
                 mixing_mode = 'local-TF' ,
                 mixing_beta = 0.5 ,
 /
ATOMIC_SPECIES
    C   12.01100  C.revpbe-n-kjpaw_psl.0.1.UPF 
   Cl   35.45200  Cl.revpbe-n-kjpaw_psl.0.3.0.UPF 
    O   15.99940  O.revpbe-n-kjpaw_psl.0.1.UPF 
    H   1.008000  H.revpbe-kjpaw_psl.0.1.UPF
ATOMIC_POSITIONS (crystal)
C        0.005082801   0.004475712  -0.002993000
C        0.251181017  -0.001208950  -0.010277188
C        0.502776265   0.004340934  -0.001805924
C        0.756492272   0.009247227   0.015285710
C        0.006717805   0.255164439  -0.001763433
C        0.088581445   0.170874518  -0.006021509
C        0.255875479   0.251297259  -0.010488748
C        0.332671030   0.161776648  -0.012034252
C        0.498882617   0.250977054  -0.010031684
C        0.585952588   0.170707486  -0.005503970
C        0.752111562   0.255150546  -0.001038409
C        0.838252380   0.172820588   0.004072234
C        0.003349551   0.502931519  -0.002762724
C        0.092815326   0.420661643  -0.002395811
C        0.266253333   0.501803517  -0.000337680
C        0.346946894   0.413212715  -0.006869236
C        0.569563326   0.413071033  -0.006751695
C        0.739032375   0.501687886  -0.001318985
C        0.831524037   0.420563913  -0.002153691
C        0.000493279   0.750760615  -0.005309591
C        0.085781596   0.667686245  -0.006935273
C        0.254193263   0.750832875  -0.004980880
C        0.340672297   0.670052803   0.007339592
C        0.498218667   0.764556606   0.029711451
Cl       0.589593460   0.683030285   0.095702598
C        0.764540323   0.762605178   0.020354138
C        0.832414292   0.670365433   0.004338724
C        0.083987042   0.916828458  -0.007078519
C        0.336440591   0.916941268  -0.006363589
C        0.588031814   0.925637869   0.015986792
C        0.840536471   0.925018537   0.012250624
O        0.399884337   0.615751809   0.196871923
O        0.339279188   0.448073842   0.208681519
H        0.369518092   0.445212463   0.270410160
K_POINTS automatic 
  16 16 1   0 0 0 

