 &CONTROL
                 calculation = 'relax' ,
                      outdir = './tmp/' ,
                  pseudo_dir = '/home/deleted/pseudo_psl' ,
                      prefix = 'GCl_op' ,
                   verbosity = 'high' ,
               etot_conv_thr = 1.0D-5 ,
               forc_conv_thr = 4.0D-4 ,
                       nstep = 1000 ,
                    dipfield = .true. ,
 /
 &SYSTEM
                       ibrav = 4,
                           A = 9.88 ,
                           C = 15 ,
                         nat = 34,
                        ntyp = 4,
                     ecutwfc = 40.424239707 ,
                     ecutrho = 404.24239707 ,
                 occupations = 'smearing' ,
                     degauss = 0.01 ,
				   input_dft = 'vdW-DF' ,
    nspin = 2 ,
    starting_magnetization(1) = 0.5,
    starting_magnetization(2) = 0.5,
    starting_magnetization(3) = 0.5,
	starting_magnetization(4) = 0.5,
 /
 &ELECTRONS
            electron_maxstep = 50001,
                    conv_thr = 1.0D-6 ,
                 mixing_mode = 'local-TF' ,
                 mixing_beta = 0.5 ,
 /
 &IONS
                ion_dynamics = 'bfgs' ,
 /
ATOMIC_SPECIES
    C   12.01100  C.revpbe-n-kjpaw_psl.0.1.UPF 
   Cl   35.45200  Cl.revpbe-n-kjpaw_psl.0.3.0.UPF 
    O   15.99940  O.revpbe-n-kjpaw_psl.0.1.UPF 
    H   1.008000  H.revpbe-kjpaw_psl.0.1.UPF
ATOMIC_POSITIONS (crystal)
C        0.008939586   0.006857454  -0.003619971
C        0.254350896   0.000399889  -0.012209423
C        0.506272434   0.006818962  -0.003981219
C        0.760113324   0.011764785   0.014956280
C        0.010050866   0.257252465  -0.003414284
C        0.092245532   0.173219006  -0.007610205
C        0.259462514   0.253051392  -0.012367465
C        0.335968572   0.163609502  -0.014100543
C        0.501930849   0.252999402  -0.011988799
C        0.589409396   0.173173380  -0.007574831
C        0.755679019   0.257205890  -0.003218860
C        0.842028696   0.175547213   0.002660204
C        0.006535922   0.504541882  -0.004952466
C        0.096121497   0.422784731  -0.004803985
C        0.269691149   0.503525103  -0.003244280
C        0.351553917   0.415265695  -0.008950734
C        0.571901722   0.415250498  -0.008279374
C        0.742203877   0.503470337  -0.002366916
C        0.835168755   0.422765345  -0.004247580
C        0.004109022   0.752478022  -0.006362666
C        0.089063228   0.669636524  -0.008825617
C        0.256836811   0.752550616  -0.006966630
C        0.343243592   0.671293796   0.004416585
C        0.501057309   0.767307917   0.024987360
Cl       0.597516083   0.687714808   0.088766527
C        0.773677960   0.767031164   0.024529370
C        0.836469825   0.671351297   0.005009326
C        0.087507239   0.918806133  -0.008133940
C        0.339692990   0.918854640  -0.008414670
C        0.592023807   0.928746984   0.013740453
C        0.845129881   0.928793075   0.013830709
O        0.334692056   0.563206843   0.214645594
O        0.276018335   0.416058588   0.214758710
H        0.380980154   0.459576635   0.299123013
K_POINTS automatic 
  4 4 1   0 0 0 

