 &CONTROL
                 calculation = 'bands' ,
                      outdir = './tmp/' ,
                  pseudo_dir = '/home/deleted/pseudo_psl' ,
                      prefix = 'GBr_ip' ,
                   verbosity = 'high' ,
               etot_conv_thr = 1.0D-5 ,
               forc_conv_thr = 4.0D-4 ,
                       nstep = 1000 ,
                    dipfield = .true. ,
 /
 &SYSTEM
                       ibrav = 4,
                           A = 9.88 ,
                           C = 15 ,
                         nat = 33,
                        ntyp = 3,
                     ecutwfc = 40.424239707 ,
                     ecutrho = 404.24239707 ,
                 occupations = 'tetrahedra' ,
                     degauss = 0.01 ,
				   input_dft = 'vdW-DF' ,
 /
 &ELECTRONS
            electron_maxstep = 50001,
                    conv_thr = 1.0D-6 ,
                 mixing_mode = 'local-TF' ,
                 mixing_beta = 0.5 ,
 /
ATOMIC_SPECIES
    C   12.01100  C.revpbe-n-kjpaw_psl.0.1.UPF 
   Br   79.90350  Br.revpbe-n-kjpaw_psl.0.2.UPF 
    O   15.99940  O.revpbe-n-kjpaw_psl.0.1.UPF 
ATOMIC_POSITIONS crystal 
C       -0.002478219  -0.006611888   0.003151400
C        0.250018684   0.000037368   0.005727114
C        0.495866332  -0.006611888   0.003151400
C        0.743965237  -0.012069525  -0.002256633
C       -0.006338027   0.240262158   0.008364716
C        0.079368481   0.160411643   0.003286640
C        0.247063631   0.247525834  -0.003900856
C        0.332861476   0.165722953  -0.002957096
C        0.500462205   0.247525834  -0.003900856
C        0.581043160   0.160411643   0.003286640
C        0.746600185   0.240262158   0.008364716
C        0.826824647   0.153649293   0.006404621
C       -0.003544701   0.492910598   0.017839185
C        0.074190335   0.406847064   0.013177635
C        0.237328529   0.491896663   0.003485600
C        0.314395616   0.410943350  -0.009614941
C        0.596547732   0.410943350  -0.009614941
C        0.754568134   0.491896663   0.003485600
C        0.832656728   0.406847064   0.013177635
C        0.002761450   0.746947119   0.012700174
C        0.080450620   0.660901242   0.017516827
C        0.244185670   0.746947119   0.012700174
C        0.322346351   0.661906646   0.003378404
C        0.480340394   0.742892642  -0.009305735
Br       0.538179012   0.576358026  -0.033388891
C        0.762552248   0.742892642  -0.009305735
C        0.839560294   0.661906646   0.003378404
C        0.083216944   0.913483444   0.007817739
C        0.330266499   0.913483444   0.007817739
C        0.576395642   0.906210253  -0.003475526
C        0.829814611   0.906210253  -0.003475526
O        0.535047638   0.570095276   0.154121325
O        0.606815790   0.713631581   0.178863048
K_POINTS crystal_b 
4
0.0000000000    0.0000000000    0.0000000000 17
0.0000000000    0.5000000000    0.0000000000 10
0.3333333333    0.3333333333    0.0000000000 20
0.0000000000    0.0000000000    0.0000000000 1

