 &CONTROL
                 calculation = 'bands' ,
                      outdir = './tmp/' ,
                  pseudo_dir = '/home/deleted/pseudo_psl' ,
                      prefix = 'MVG_tlh' ,
                    dipfield = .true. ,
                   verbosity = 'high',
                       nstep = 1000,
               forc_conv_thr = 4.0D-4,
               etot_conv_thr = 1.0D-5
 /
 &SYSTEM
                       ibrav = 4,
                           A = 9.88 ,
                           C = 15 ,
                         nat = 33,
                        ntyp = 2,
                     ecutwfc = 40.424239707 ,
                     ecutrho = 404.24239707 ,
                 occupations = 'tetrahedra' ,
                     degauss = 0.01 ,
				   input_dft = 'vdW-DF' ,
    nspin = 2 ,
    starting_magnetization(1) = 0.5,
	starting_magnetization(2) = 0.5,
 /
 &ELECTRONS
            electron_maxstep = 50001,
                    conv_thr = 1.0D-6 ,
                 mixing_mode = 'local-TF' ,
                 mixing_beta = 0.5 ,
 /
 &IONS
                ion_dynamics = 'bfgs' ,
 /
ATOMIC_SPECIES
    C   12.01100  C.revpbe-n-kjpaw_psl.0.1.UPF 
    O   15.99940  O.revpbe-n-kjpaw_psl.0.1.UPF 
ATOMIC_POSITIONS crystal 
C       -0.006415811   0.001774983   0.000904825
C        0.242091313  -0.000699148  -0.006391397
C        0.493033671   0.001744140   0.000824301
C        0.745226380   0.005637488   0.012899516
C       -0.005329193   0.252626340  -0.001089595
C        0.075880231   0.167722795  -0.004038374
C        0.241457755   0.247945694  -0.011795084
C        0.324184859   0.163499235  -0.012518803
C        0.491362584   0.247970296  -0.011812585
C        0.576679029   0.167710544  -0.004114358
C        0.742788950   0.252652646  -0.001161347
C        0.827150188   0.169499227   0.003277460
C       -0.006765704   0.501576276   0.000352832
C        0.079320651   0.418663736  -0.000995166
C        0.248695183   0.501018370  -0.001194077
C        0.324277812   0.411485965  -0.013347455
C        0.572140340   0.411528366  -0.013376438
C        0.737254590   0.501102741  -0.001232104
C        0.824241912   0.418702247  -0.001070639
C       -0.009201075   0.750393093   0.000623439
C        0.075967714   0.667069177  -0.001538509
C        0.244438538   0.750348315   0.000618862
C        0.331257764   0.669451788   0.009184375
C        0.494200762   0.757815812   0.025835486
C        0.589408079   0.694064923   0.065886104
C        0.748532717   0.757897841   0.026022334
C        0.823080950   0.669540237   0.009215466
C        0.074927649   0.916750663  -0.001660733
C        0.326674731   0.916718104  -0.001665760
C        0.577100021   0.921109388   0.013491491
C        0.828903187   0.921189067   0.013649928
O        0.485409452   0.485900214  -0.027656227
O        0.548691434   0.612922772   0.133872235
K_POINTS crystal_b 
4
0.0000000000    0.0000000000    0.0000000000 17
0.0000000000    0.5000000000    0.0000000000 10
0.3333333333    0.3333333333    0.0000000000 20
0.0000000000    0.0000000000    0.0000000000 1

