 &CONTROL
                 calculation = 'scf' ,
                      outdir = './tmp/' ,
                  pseudo_dir = '/home/deleted/pseudo_psl' ,
                      prefix = 'GBr_op' ,
                   verbosity = 'high' ,
               etot_conv_thr = 1.0D-5 ,
               forc_conv_thr = 4.0D-4 ,
                       nstep = 1000 ,
                    dipfield = .true. ,
 /
 &SYSTEM
                       ibrav = 4,
                           A = 9.88 ,
                           C = 15 ,
                         nat = 34,
                        ntyp = 4,
                     ecutwfc = 40.424239707 ,
                     ecutrho = 404.24239707 ,
                 occupations = 'smearing' ,
                     degauss = 0.01 ,
				   input_dft = 'vdW-DF' ,
 /
 &ELECTRONS
            electron_maxstep = 50001,
                    conv_thr = 1.0D-6 ,
                 mixing_mode = 'local-TF' ,
                 mixing_beta = 0.5 ,
 /
ATOMIC_SPECIES
    C   12.01100  C.revpbe-n-kjpaw_psl.0.1.UPF 
   Br   79.90350  Br.revpbe-n-kjpaw_psl.0.2.UPF 
    O   15.99940  O.revpbe-n-kjpaw_psl.0.1.UPF 
    H   1.008000  H.revpbe-kjpaw_psl.0.1.UPF
ATOMIC_POSITIONS crystal 
C       -0.000907497   0.004410148   0.004537320
C        0.250684715   0.005733080  -0.016176344
C        0.498408112   0.006189407   0.005578898
C        0.748618126   0.005453642   0.036778443
C       -0.007683551   0.249123043  -0.002480484
C        0.079833072   0.170394948  -0.009440545
C        0.247956988   0.256009726  -0.026905671
C        0.333026190   0.173109499  -0.017606855
C        0.499449164   0.258619368  -0.003529286
C        0.581538006   0.172232546   0.003267749
C        0.747330963   0.253793854   0.007897453
C        0.828234493   0.167127295   0.012844075
C       -0.005963169   0.502999045  -0.008443243
C        0.068914355   0.413500989  -0.012689026
C        0.227637304   0.493322123  -0.032288401
C        0.314736543   0.419190664  -0.041951377
C        0.585233921   0.417994008   0.017262154
C        0.747577704   0.503895872   0.015401655
C        0.829625538   0.420147500   0.003168560
C        0.001104389   0.755573319  -0.003580958
C        0.082379375   0.670148184  -0.016459835
C        0.249963106   0.751753785  -0.028202444
C        0.319515741   0.656025966  -0.046271301
C        0.472650289   0.685147419  -0.076424050
Br       0.665692482   0.669972843   0.172963026
C        0.780830833   0.764566396   0.060274888
C        0.840468838   0.673742297   0.023858751
C        0.082451242   0.921626018  -0.007783955
C        0.334165202   0.920087361  -0.013691411
C        0.581675213   0.935239278   0.044808985
C        0.838635398   0.923899192   0.038197918
O        0.488759675   0.812961128   0.096525013
O        0.465298103   0.542276589  -0.075464386
H        0.546406946   0.771841015   0.129997181
K_POINTS automatic 
  16 16 1   0 0 0 

