 &CONTROL
                 calculation = 'bands' ,
                      outdir = './tmp/' ,
                  pseudo_dir = '/home/deleted/pseudo_psl' ,
                      prefix = 'G_B1' ,
                    dipfield = .true. ,
                   verbosity = 'high',
                       nstep = 1000,
               forc_conv_thr = 4.0D-4,
               etot_conv_thr = 1.0D-5
 /
 &SYSTEM
                       ibrav = 4,
                           A = 9.88 ,
                           C = 15 ,
                         nat = 30, 
                        ntyp = 1,
                     ecutwfc = 40.424239707 ,
                     ecutrho = 404.24239707 ,
                 occupations = 'tetrahedra' ,
                     degauss = 0.01 ,
				   input_dft = 'vdW-DF' ,
 /
 &ELECTRONS
            electron_maxstep = 50001,
                    conv_thr = 1.0D-6 ,
                 mixing_mode = 'local-TF' ,
                 mixing_beta = 0.5 ,
 /
ATOMIC_SPECIES
    C   12.01100  C.revpbe-n-kjpaw_psl.0.1.UPF
ATOMIC_POSITIONS crystal 
C       -0.001615826  -0.000369269   0.000000032
C        0.244626949  -0.010746060   0.000000026
C        0.501246338  -0.000369499   0.000000085
C        0.757696429   0.015393169  -0.000000014
C        0.007823197   0.256542221  -0.000000192
C        0.084949123   0.167035859  -0.000000249
C        0.251891339   0.243581943  -0.000000405
C        0.325637033   0.151273597  -0.000000095
C        0.491690608   0.243581763   0.000000009
C        0.582087034   0.167036088   0.000000037
C        0.748719306   0.256542269  -0.000000008
C        0.838706421   0.177412876  -0.000000075
C        0.000997575   0.501995053  -0.000000030
C        0.096482255   0.421271922  -0.000000194
C        0.273828237   0.498873972  -0.000000280
C        0.352314665   0.405589880  -0.000000546
C        0.553275529   0.405589879  -0.000000067
C        0.725045940   0.498874009   0.000000055
C        0.824789914   0.421272155   0.000000013
C       -0.013148873   0.745394779   0.000000105
C        0.082335734   0.664671637   0.000000053
C        0.258543367   0.745394592   0.000000225
C        0.358287372   0.667792700   0.000000144
C        0.530057705   0.761076745   0.000000272
C        0.731018618   0.761076804   0.000000368
C        0.809505042   0.667792679   0.000000196
C        0.075510244   0.910124325   0.000000038
C        0.334614093   0.910124442   0.000000185
C        0.591642717   0.923084804   0.000000095
C        0.831441907   0.923084671   0.000000216
K_POINTS crystal_b 
4
0.0000000000    0.0000000000    0.0000000000 17
0.0000000000    0.5000000000    0.0000000000 10
0.3333333333    0.3333333333    0.0000000000 20
0.0000000000    0.0000000000    0.0000000000 1

