 &CONTROL
                 calculation = 'relax' ,
                      outdir = './tmp/' ,
                  pseudo_dir = '/home/deleted/pseudo_psl' ,
                      prefix = 'GF_ip' ,
                   verbosity = 'high' ,
               etot_conv_thr = 1.0D-5 ,
               forc_conv_thr = 4.0D-4 ,
                       nstep = 1000 ,
                    dipfield = .true. ,
 /
 &SYSTEM
                       ibrav = 4,
                           A = 9.88 ,
                           C = 15 ,
                         nat = 33,
                        ntyp = 3,
                     ecutwfc = 40.424239707 ,
                     ecutrho = 404.24239707 ,
                 occupations = 'smearing' ,
                     degauss = 0.01 ,
				   input_dft = 'vdW-DF' ,
 /
 &ELECTRONS
            electron_maxstep = 50001,
                    conv_thr = 1.0D-6 ,
                 mixing_mode = 'local-TF' ,
                 mixing_beta = 0.5 ,
 /
 &IONS
                ion_dynamics = 'bfgs' ,
 /
ATOMIC_SPECIES
    C   12.01100  C.revpbe-n-kjpaw_psl.0.1.UPF 
    F   18.99800  F.revpbe-n-kjpaw_psl.0.1.UPF 
    O   15.99940  O.revpbe-n-kjpaw_psl.0.1.UPF 
ATOMIC_POSITIONS crystal 
C       -0.007697904  -0.004062498  -0.002290141
C        0.242569306  -0.004255526   0.004921458
C        0.493102236  -0.000421580   0.008335337
C        0.742599991  -0.001382865   0.000903189
C       -0.005371552   0.248023542   0.007483844
C        0.075639065   0.162912627   0.006379889
C        0.241857100   0.245226131   0.013150629
C        0.325092948   0.161632200   0.012997230
C        0.491626998   0.245947266   0.017847315
C        0.576505464   0.165435879   0.007944029
C        0.742880072   0.247907900   0.009940056
C        0.827196285   0.164795609   0.005488051
C       -0.007817973   0.496641338   0.007628289
C        0.078469969   0.414747513   0.009944250
C        0.247625175   0.499901176   0.021462977
C        0.324144469   0.408961421   0.025335193
C        0.573269870   0.409186858   0.028234322
C        0.738420912   0.497698597   0.013994159
C        0.824195641   0.414227553   0.011350187
C       -0.009175753   0.746183656  -0.000195710
C        0.074258826   0.662571382   0.006863194
C        0.241525640   0.745572298   0.012772139
C        0.325475460   0.665569945   0.027041880
C        0.490017416   0.766794221   0.056652138
F        0.605849109   0.675673470  -0.066153191
C        0.753138393   0.752231791  -0.029241681
C        0.823104013   0.663653589  -0.005332432
C        0.075141379   0.912374246  -0.002682662
C        0.325261268   0.913419949   0.010375818
C        0.578284040   0.920556869   0.012979098
C        0.825773622   0.913907052  -0.011993219
O        0.546805531   0.742557451   0.123879395
O        0.486899642   0.479144277   0.053984969
K_POINTS automatic 
  4 4 1   0 0 0 

