 &CONTROL
                 calculation = 'nscf' ,
                      outdir = './tmp/' ,
                  pseudo_dir = '/home/deleted/pseudo_psl' ,
                      prefix = 'GI_ip' ,
                   verbosity = 'high' ,
               etot_conv_thr = 1.0D-5 ,
               forc_conv_thr = 4.0D-4 ,
                       nstep = 1000 ,
                    dipfield = .true. ,
 /
 &SYSTEM
                       ibrav = 4,
                           A = 9.88 ,
                           C = 15 ,
                         nat = 33,
                        ntyp = 3,
                     ecutwfc = 40.424239707 ,
                     ecutrho = 404.24239707 ,
                 occupations = 'tetrahedra' ,
                     degauss = 0.01 ,
				   input_dft = 'vdW-DF' ,
 /
 &ELECTRONS
            electron_maxstep = 50001,
                    conv_thr = 1.0D-6 ,
                 mixing_mode = 'local-TF' ,
                 mixing_beta = 0.5 ,
 /
ATOMIC_SPECIES
    C   12.01100  C.revpbe-n-kjpaw_psl.0.1.UPF 
    I  126.90400  I.revpbe-n-kjpaw_psl.0.2.UPF 
    O   15.99940  O.revpbe-n-kjpaw_psl.0.1.UPF 
ATOMIC_POSITIONS crystal 
C       -0.000731018   0.002329540   0.006291743
C        0.251665086   0.009058425   0.009255826
C        0.497372566   0.001905400   0.004699598
C        0.745369464  -0.003290449  -0.004447140
C       -0.004992931   0.248863417   0.011775114
C        0.081048029   0.169290922   0.004894146
C        0.247694566   0.255772864  -0.007222692
C        0.334206501   0.174372280  -0.004283654
C        0.502306631   0.255622107  -0.004352809
C        0.582568423   0.168854822   0.006281927
C        0.748091212   0.248654692   0.013542588
C        0.828152614   0.162031161   0.009220268
C       -0.001709168   0.501493161   0.027499310
C        0.075991749   0.415643773   0.018095951
C        0.237192281   0.500469896   0.000200320
C        0.312042955   0.418472891  -0.019830042
C        0.599895159   0.418897565  -0.011712659
C        0.756777857   0.500322958   0.007885892
C        0.834117618   0.415270365   0.021844518
C        0.004405350   0.755917360   0.021791204
C        0.082449889   0.669780464   0.027559552
C        0.246009135   0.755571639   0.018114479
C        0.322302834   0.670712302   0.000072095
C        0.479015404   0.752704102  -0.020359934
I        0.541579697   0.585487550  -0.061229972
C        0.766719650   0.752266474  -0.012157347
C        0.842052623   0.670806265   0.007724478
C        0.084974211   0.922504968   0.013513924
C        0.331769074   0.922315603   0.011753583
C        0.577450149   0.915369418  -0.007600125
C        0.832270171   0.915512024  -0.004547183
O        0.405895529   0.591310102   0.176140824
O        0.522713349   0.589039276   0.139586218
K_POINTS automatic 
  20 20 1   0 0 0 

