 &CONTROL
                 calculation = 'relax' ,
                      outdir = './tmp/' ,
                  pseudo_dir = '/home/deleted/pseudo_psl' ,
                      prefix = 'GI_op' ,
                   verbosity = 'high' ,
               etot_conv_thr = 1.0D-5 ,
               forc_conv_thr = 4.0D-4 ,
                       nstep = 1000 ,
                    dipfield = .true. ,
 /
 &SYSTEM
                       ibrav = 4,
                           A = 9.88 ,
                           C = 15 ,
                         nat = 32,
                        ntyp = 3,
                     ecutwfc = 40.424239707 ,
                     ecutrho = 404.24239707 ,
                 occupations = 'smearing' ,
                     degauss = 0.01 ,
				   input_dft = 'vdW-DF' ,
 /
 &ELECTRONS
            electron_maxstep = 50001,
                    conv_thr = 1.0D-6 ,
                 mixing_mode = 'local-TF' ,
                 mixing_beta = 0.5 ,
 /
 &IONS
                ion_dynamics = 'bfgs' ,
 /
ATOMIC_SPECIES
    C   12.01100  C.revpbe-n-kjpaw_psl.0.1.UPF 
    I  126.90400  I.revpbe-n-kjpaw_psl.0.2.UPF 
    O   15.99940  O.revpbe-n-kjpaw_psl.0.1.UPF 
ATOMIC_POSITIONS crystal 
C       -0.001724320   0.001530660  -0.001428888
C        0.244608044  -0.008695693  -0.000751577
C        0.501297997   0.001741216  -0.001210215
C        0.757216359   0.016645974  -0.001773342
C        0.007214222   0.258189030  -0.001598372
C        0.084624599   0.168804071  -0.001051329
C        0.251605280   0.245668200  -0.001108643
C        0.325722447   0.153794706  -0.000959925
C        0.491645932   0.245665034  -0.001848894
C        0.581971768   0.168975636  -0.001723720
C        0.748742188   0.258318708  -0.001988826
C        0.838428536   0.179234671  -0.001758210
C        0.000738267   0.503607263  -0.002154519
C        0.095759806   0.423067036  -0.001993279
C        0.273601108   0.501131518  -0.002208109
C        0.351665107   0.407805403  -0.001935620
C        0.553727506   0.407803265  -0.002184152
C        0.725131427   0.500987462  -0.002227995
C        0.825084083   0.423225962  -0.002260662
C       -0.012698047   0.747423305  -0.001802077
C        0.082622614   0.667118786  -0.002028051
C        0.258307708   0.747575398  -0.001869540
C        0.357881992   0.669799448  -0.002249806
C        0.529451007   0.762745108  -0.001482807
I        0.548320639   0.571257042   0.247506505
C        0.731437141   0.762816986  -0.002497630
C        0.809668145   0.669743109  -0.002129338
C        0.075797329   0.912217944  -0.001242371
C        0.334527651   0.912447019  -0.001065284
C        0.591493058   0.925022820  -0.001524612
C        0.831462364   0.924937671  -0.002209416
O        0.595916425   0.753252355   0.174334106
K_POINTS automatic 
  4 4 1   0 0 0 

