 &CONTROL
                 calculation = 'scf' ,
                      outdir = './tmp/' ,
                  pseudo_dir = '/home/deleted/pseudo_psl' ,
                      prefix = 'GI_op' ,
                   verbosity = 'high' ,
               etot_conv_thr = 1.0D-5 ,
               forc_conv_thr = 4.0D-4 ,
                       nstep = 1000 ,
                    dipfield = .true. ,
 /
 &SYSTEM
                       ibrav = 4,
                           A = 9.88 ,
                           C = 15 ,
                         nat = 32,
                        ntyp = 3,
                     ecutwfc = 40.424239707 ,
                     ecutrho = 404.24239707 ,
                 occupations = 'smearing' ,
                     degauss = 0.01 ,
				   input_dft = 'vdW-DF' ,
 /
 &ELECTRONS
            electron_maxstep = 50001,
                    conv_thr = 1.0D-6 ,
                 mixing_mode = 'local-TF' ,
                 mixing_beta = 0.5 ,
 /
ATOMIC_SPECIES
    C   12.01100  C.revpbe-n-kjpaw_psl.0.1.UPF 
    I  126.90400  I.revpbe-n-kjpaw_psl.0.2.UPF 
    O   15.99940  O.revpbe-n-kjpaw_psl.0.1.UPF 
ATOMIC_POSITIONS crystal 
C       -0.001698289   0.001664163  -0.001353596
C        0.244563065  -0.008771989  -0.000942096
C        0.501148923   0.001588944  -0.001383589
C        0.757243482   0.016775785  -0.001773743
C        0.007351245   0.258310682  -0.001601199
C        0.084768070   0.168921764  -0.001302629
C        0.251750252   0.245647223  -0.001388542
C        0.325782021   0.153697505  -0.001089073
C        0.491719004   0.245583355  -0.001585658
C        0.581936943   0.168815794  -0.001441807
C        0.748742336   0.258268961  -0.001693536
C        0.838526916   0.179273077  -0.001619845
C        0.000657049   0.503591540  -0.002077954
C        0.095844336   0.423150360  -0.001947030
C        0.273679219   0.501109676  -0.002139860
C        0.351838365   0.407800398  -0.001965964
C        0.553774262   0.407740652  -0.002253624
C        0.725137863   0.501017933  -0.002327432
C        0.825037305   0.423148830  -0.002074858
C       -0.012821786   0.747496565  -0.001703118
C        0.082406146   0.667044801  -0.001873303
C        0.258084681   0.747402513  -0.001703014
C        0.357804099   0.669730255  -0.002247563
C        0.529374169   0.762792324  -0.002016716
I        0.548543692   0.571387453   0.247555254
C        0.731315448   0.762889097  -0.002293271
C        0.809569392   0.669809520  -0.002241452
C        0.075738011   0.912291771  -0.001199315
C        0.334340448   0.912250426  -0.001175085
C        0.591421577   0.925024012  -0.001954872
C        0.831445800   0.925045615  -0.001894300
O        0.596224338   0.753358108   0.174282190
K_POINTS automatic 
  16 16 1   0 0 0 

