 &CONTROL
                 calculation = 'scf' ,
                      outdir = './tmp/' ,
                  pseudo_dir = '/home/deleted/pseudo_psl' ,
                      prefix = 'MVG_txc' ,
                    dipfield = .true. ,
                   verbosity = 'high',
                       nstep = 1000,
               forc_conv_thr = 4.0D-4,
               etot_conv_thr = 1.0D-5
 /
 &SYSTEM
                       ibrav = 4,
                           A = 9.88 ,
                           C = 15 ,
                         nat = 33,
                        ntyp = 2,
                     ecutwfc = 40.424239707 ,
                     ecutrho = 404.24239707 ,
                 occupations = 'smearing' ,
                     degauss = 0.01 ,
				   input_dft = 'vdW-DF' ,
    nspin = 2 ,
    starting_magnetization(1) = 0.5,
	starting_magnetization(2) = 0.5,
 /
 &ELECTRONS
            electron_maxstep = 50001,
                    conv_thr = 1.0D-6 ,
                 mixing_mode = 'local-TF' ,
                 mixing_beta = 0.5 ,
 /
ATOMIC_SPECIES
    C   12.01100  C.revpbe-n-kjpaw_psl.0.1.UPF 
    O   15.99940  O.revpbe-n-kjpaw_psl.0.1.UPF 
ATOMIC_POSITIONS crystal 
C        0.001231365   0.009475266   0.001108710
C        0.249695181   0.006927044  -0.006327346
C        0.500647502   0.009408364   0.000963963
C        0.752878228   0.013296869   0.013007046
C        0.002330089   0.260308173  -0.001275990
C        0.083540754   0.175398649  -0.004090186
C        0.249091755   0.255570752  -0.011925739
C        0.331806751   0.171109135  -0.012527999
C        0.498979138   0.255600445  -0.011749657
C        0.584300538   0.175354977  -0.004027927
C        0.750417488   0.260254893  -0.001169844
C        0.834807457   0.177115676   0.003206631
C        0.000854992   0.509237857   0.000284486
C        0.086974817   0.426344724  -0.001199616
C        0.256355973   0.508679581  -0.001391878
C        0.331927769   0.419139165  -0.013586740
C        0.579772423   0.419181180  -0.013356404
C        0.744862568   0.508701160  -0.001156345
C        0.831848215   0.426301826  -0.001040721
C       -0.001603508   0.758060940   0.000715072
C        0.083573686   0.674746204  -0.001524807
C        0.252049670   0.757988029   0.000711445
C        0.338906960   0.677104205   0.009137809
C        0.501834289   0.765461938   0.025823825
C        0.596953350   0.701549754   0.065801831
C        0.756140060   0.765508883   0.026039324
C        0.830699403   0.677164220   0.009286975
C        0.082535780   0.924426236  -0.001488214
C        0.334283190   0.924359311  -0.001544970
C        0.584742930   0.928798429   0.013644308
C        0.836542032   0.928842449   0.013806513
O        0.493065380   0.493566533  -0.027885173
O        0.556137054   0.620263698   0.133731617
K_POINTS automatic 
  16 16 1   0 0 0 

