 &CONTROL
                 calculation = 'nscf' ,
                      outdir = './tmp/' ,
                  pseudo_dir = '/home/deleted/pseudo_psl' ,
                      prefix = 'GBr_ip' ,
                   verbosity = 'high' ,
               etot_conv_thr = 1.0D-5 ,
               forc_conv_thr = 4.0D-4 ,
                       nstep = 1000 ,
                    dipfield = .true. ,
 /
 &SYSTEM
                       ibrav = 4,
                           A = 9.88 ,
                           C = 15 ,
                         nat = 33,
                        ntyp = 3,
                     ecutwfc = 40.424239707 ,
                     ecutrho = 404.24239707 ,
                 occupations = 'tetrahedra' ,
                     degauss = 0.01 ,
				   input_dft = 'vdW-DF' ,
 /
 &ELECTRONS
            electron_maxstep = 50001,
                    conv_thr = 1.0D-6 ,
                 mixing_mode = 'local-TF' ,
                 mixing_beta = 0.5 ,
 /
ATOMIC_SPECIES
    C   12.01100  C.revpbe-n-kjpaw_psl.0.1.UPF 
   Br   79.90350  Br.revpbe-n-kjpaw_psl.0.2.UPF 
    O   15.99940  O.revpbe-n-kjpaw_psl.0.1.UPF 
ATOMIC_POSITIONS crystal 
C       -0.007798578  -0.002920564   0.011400673
C        0.241743083  -0.004601714   0.017839322
C        0.492689292  -0.002268161   0.018032588
C        0.741834714  -0.001467539   0.007863437
C       -0.006872278   0.248205921   0.012024229
C        0.074306625   0.163625198   0.017047183
C        0.240918807   0.244882900   0.019279009
C        0.324120594   0.161086947   0.017013554
C        0.490292309   0.244838178   0.011917172
C        0.575402358   0.163688601   0.010354098
C        0.741491669   0.248229571   0.008794724
C        0.825646161   0.165039939   0.008561138
C       -0.008263784   0.497344739   0.011474990
C        0.077473860   0.414680252   0.016106978
C        0.246555203   0.498432178   0.026057087
C        0.324782185   0.408623889   0.021436603
C        0.570818534   0.409126941   0.007036009
C        0.737253193   0.497559024  -0.002663449
C        0.823102128   0.414849240   0.005424176
C       -0.009470367   0.747247450   0.008590582
C        0.074174792   0.663272596   0.015098473
C        0.241430975   0.745788743   0.023697794
C        0.324965108   0.664395882   0.034642406
C        0.491163370   0.758554716   0.062443866
Br       0.611023122   0.697813171  -0.132710210
C        0.760868815   0.760745601  -0.034601430
C        0.825170993   0.666409378  -0.010493705
C        0.074484135   0.913032369   0.012807720
C        0.325200705   0.913509189   0.021752784
C        0.577887084   0.917892387   0.023826854
C        0.827873171   0.916634794  -0.004683476
O        0.550346899   0.714045859   0.120084840
O        0.486051785   0.485035661   0.014543981
K_POINTS automatic 
  20 20 1   0 0 0 

