 &CONTROL
                 calculation = 'nscf' ,
                      outdir = './tmp/' ,
                  pseudo_dir = '/home/deleted/pseudo_psl' ,
                      prefix = 'GCl_ip' ,
                   verbosity = 'high' ,
               etot_conv_thr = 1.0D-5 ,
               forc_conv_thr = 4.0D-4 ,
                       nstep = 1000 ,
                    dipfield = .true. ,
 /
 &SYSTEM
                       ibrav = 4,
                           A = 9.88 ,
                           C = 15 ,
                         nat = 33,
                        ntyp = 3,
                     ecutwfc = 40.424239707 ,
                     ecutrho = 404.24239707 ,
                 occupations = 'tetrahedra' ,
                     degauss = 0.01 ,
				   input_dft = 'vdW-DF' ,
 /
 &ELECTRONS
            electron_maxstep = 50001,
                    conv_thr = 1.0D-6 ,
                 mixing_mode = 'local-TF' ,
                 mixing_beta = 0.5 ,
 /
ATOMIC_SPECIES
    C   12.01100  C.revpbe-n-kjpaw_psl.0.1.UPF 
   Cl   35.45200  Cl.revpbe-n-kjpaw_psl.0.3.0.UPF 
    O   15.99940  O.revpbe-n-kjpaw_psl.0.1.UPF 
ATOMIC_POSITIONS crystal 
C       -0.000331099  -0.003465889   0.007075318
C        0.244921593  -0.010156815   0.015792652
C        0.496865210  -0.003465889   0.007075318
C        0.750708856   0.001417712  -0.011606888
C        0.000657184   0.246839921   0.005907865
C        0.082904892   0.162861050   0.010530147
C        0.250213215   0.242691166   0.014618315
C        0.326501114   0.153002228   0.017237244
C        0.492477951   0.242691166   0.014618315
C        0.579956157   0.162861050   0.010530147
C        0.746182737   0.246839921   0.005907865
C        0.832597397   0.165194794   0.000265547
C       -0.002896172   0.494207656   0.006980767
C        0.086861348   0.412330652   0.006471527
C        0.260612804   0.493026045   0.004266574
C        0.342985706   0.404740375   0.009818455
C        0.561754668   0.404740375   0.009818455
C        0.732413241   0.493026045   0.004266574
C        0.825469303   0.412330652   0.006471527
C       -0.005239900   0.742090195   0.009231793
C        0.079571945   0.659143891   0.011141704
C        0.247330095   0.742090195   0.009231793
C        0.333432741   0.660819509  -0.002641827
C        0.491763794   0.757340947  -0.021124662
Cl       0.588895019   0.677790039  -0.084571503
C        0.765577152   0.757340947  -0.021124662
C        0.827386767   0.660819509  -0.002641827
C        0.078068065   0.908297368   0.011677579
C        0.330229303   0.908297368   0.011677579
C        0.582670709   0.918755909  -0.010669942
C        0.836085199   0.918755909  -0.010669942
O        0.624730492   0.749460986   0.146819212
O        0.572342228   0.644684459   0.207618981
K_POINTS automatic 
  20 20 1   0 0 0 

