&INPUTPP
	outdir = './tmp_subs/'
	prefix = 'GCl_ip-subs'
	filplot = 'GCl_chg-up-subs'
	plot_num = 0,
	spin_component = 1
/
&PLOT
	nfile = 1
	filepp(1) = 'GCl_chg-up-subs'
	weight(1) = 1.0,
	fileout = 'GCl_chg-up-subs.xsf'
	iflag = 3
	output_format = 5
/
