 &CONTROL
                 calculation = 'bands' ,
                      outdir = './tmp/' ,
                  pseudo_dir = '/home/deleted/pseudo_psl' ,
                      prefix = 'GI_ip' ,
                   verbosity = 'high' ,
               etot_conv_thr = 1.0D-5 ,
               forc_conv_thr = 4.0D-4 ,
                       nstep = 1000 ,
                    dipfield = .true. ,
 /
 &SYSTEM
                       ibrav = 4,
                           A = 9.88 ,
                           C = 15 ,
                         nat = 34,
                        ntyp = 4,
                     ecutwfc = 40.424239707 ,
                     ecutrho = 404.24239707 ,
                 occupations = 'tetrahedra' ,
                     degauss = 0.01 ,
				   input_dft = 'vdW-DF' ,
    nspin = 2 ,
    starting_magnetization(1) = 0.5,
    starting_magnetization(2) = 0.5,
    starting_magnetization(3) = 0.5,
 /
 &ELECTRONS
            electron_maxstep = 50001,
                    conv_thr = 1.0D-6 ,
                 mixing_mode = 'local-TF' ,
                 mixing_beta = 0.500000000 ,
 /
ATOMIC_SPECIES
    C   12.01100  C.revpbe-n-kjpaw_psl.0.1.UPF 
    I  126.90400  I.revpbe-n-kjpaw_psl.0.2.UPF 
    O   15.99940  O.revpbe-n-kjpaw_psl.0.1.UPF 
    H   1.008000  H.revpbe-kjpaw_psl.0.1.UPF
ATOMIC_POSITIONS (crystal)
C        0.003980384  -0.001866891   0.005196711
C        0.256665555   0.005343694   0.009047722
C        0.502155588  -0.001968508   0.005596655
C        0.750257679  -0.007359039  -0.004106095
C       -0.000229247   0.244686958   0.012159167
C        0.085715420   0.165140948   0.005042464
C        0.252553578   0.251889635  -0.006255188
C        0.339182698   0.170469399  -0.004531002
C        0.507311762   0.251791866  -0.005983653
C        0.587416691   0.165045781   0.005408913
C        0.752887829   0.244647369   0.012467191
C        0.832921257   0.157841842   0.009064216
C        0.002738099   0.497490017   0.027209789
C        0.080393815   0.411326760   0.019401159
C        0.242081883   0.496333491   0.003694189
C        0.317248106   0.414802678  -0.015978776
C        0.605293636   0.414632596  -0.015233956
C        0.762084320   0.496265784   0.004011979
C        0.838871483   0.411337849   0.019598904
C        0.009106696   0.751800075   0.019747425
C        0.086749511   0.665618921   0.027404479
C        0.250637405   0.751727074   0.019941566
C        0.327254971   0.666641944   0.004302095
C        0.484455507   0.748099970  -0.014167890
I        0.544809812   0.581848524  -0.059121809
C        0.772058410   0.748439628  -0.014812320
C        0.847281543   0.666791062   0.004220530
C        0.089750495   0.918446338   0.012398260
C        0.336606213   0.918463376   0.012686394
C        0.582343577   0.911393987  -0.005375299
C        0.837082108   0.911394941  -0.005739627
O        0.570305135   0.611094655   0.134459212
O        0.424262242   0.534960635   0.181764217
H        0.441003978   0.611936827   0.227938156
K_POINTS automatic 
  20 20 1   0 0 0 

