 &CONTROL
                 calculation = 'scf' ,
                      outdir = './tmp/' ,
                  pseudo_dir = '/home/deleted/pseudo_psl' ,
                      prefix = 'GBr_ip' ,
                   verbosity = 'high' ,
               etot_conv_thr = 1.0D-5 ,
               forc_conv_thr = 4.0D-4 ,
                       nstep = 1000 ,
                    dipfield = .true. ,
 /
 &SYSTEM
                       ibrav = 4,
                           A = 9.88 ,
                           C = 15 ,
                         nat = 34,
                        ntyp = 4,
                     ecutwfc = 40.424239707 ,
                     ecutrho = 404.24239707 ,
                 occupations = 'smearing' ,
                     degauss = 0.01 ,
				   input_dft = 'vdW-DF' ,
    nspin = 2 ,
    starting_magnetization(1) = 0.5,
    starting_magnetization(2) = 0.5,
    starting_magnetization(3) = 0.5,
 /
 &ELECTRONS
            electron_maxstep = 50001,
                    conv_thr = 1.0D-6 ,
                 mixing_mode = 'local-TF' ,
                 mixing_beta = 0.5 ,
 /
ATOMIC_SPECIES
    C   12.01100  C.revpbe-n-kjpaw_psl.0.1.UPF 
   Br   79.90350  Br.revpbe-n-kjpaw_psl.0.2.UPF 
    O   15.99940  O.revpbe-n-kjpaw_psl.0.1.UPF 
    H   1.008000  H.revpbe-kjpaw_psl.0.1.UPF
ATOMIC_POSITIONS (crystal)
C       -0.001155346   0.004195045   0.002082397
C        0.251319001   0.010861162   0.004709736
C        0.497082471   0.003880851   0.001163393
C        0.745207124  -0.001385850  -0.004450005
C       -0.005017566   0.251125380   0.005978901
C        0.080821813   0.171375559   0.001086628
C        0.248559845   0.258515315  -0.006751635
C        0.334203423   0.176668230  -0.004479314
C        0.501713255   0.258361507  -0.004950839
C        0.582286912   0.171067734   0.002109056
C        0.747872374   0.250947209   0.007275250
C        0.828135373   0.164437856   0.004730870
C       -0.002172260   0.503602011   0.016558578
C        0.075602384   0.417802605   0.009943167
C        0.238241856   0.502679274  -0.002345007
C        0.315180724   0.421680955  -0.015689550
C        0.598138717   0.421813645  -0.010910103
C        0.755768486   0.502634237   0.003231789
C        0.833953066   0.417525485   0.012786130
C        0.004019377   0.757737756   0.012909613
C        0.081837030   0.671661645   0.016639553
C        0.245415868   0.757450209   0.010008822
C        0.323172433   0.672513538  -0.002339925
C        0.481137303   0.753461363  -0.015798532
Br       0.540329620   0.587441088  -0.038575737
C        0.763845717   0.753354043  -0.010855915
C        0.840736948   0.672590393   0.003291457
C        0.084537021   0.924331642   0.007323974
C        0.331479992   0.924157861   0.005991196
C        0.577678939   0.916679193  -0.006695646
C        0.830971899   0.916865875  -0.005007256
O        0.530426070   0.577584303   0.160775689
O        0.404780331   0.586313660   0.199270912
H        0.457274546   0.684113187   0.233533405
K_POINTS automatic 
  16 16 1   0 0 0 

