 &CONTROL
                 calculation = 'nscf' ,
                      outdir = './tmp/' ,
                  pseudo_dir = '/home/deleted/pseudo_psl' ,
                      prefix = 'GCl_ip' ,
                   verbosity = 'high' ,
               etot_conv_thr = 1.0D-5 ,
               forc_conv_thr = 4.0D-4 ,
                       nstep = 1000 ,
                    dipfield = .true. ,
 /
 &SYSTEM
                       ibrav = 4,
                           A = 9.88 ,
                           C = 15 ,
                         nat = 33,
                        ntyp = 3,
                     ecutwfc = 40.424239707 ,
                     ecutrho = 404.24239707 ,
                 occupations = 'tetrahedra' ,
                     degauss = 0.01 ,
				   input_dft = 'vdW-DF' ,
 /
 &ELECTRONS
            electron_maxstep = 50001,
                    conv_thr = 1.0D-6 ,
                 mixing_mode = 'local-TF' ,
                 mixing_beta = 0.5 ,
 /
ATOMIC_SPECIES
    C   12.01100  C.revpbe-n-kjpaw_psl.0.1.UPF 
   Cl   35.45200  Cl.revpbe-n-kjpaw_psl.0.3.0.UPF 
    O   15.99940  O.revpbe-n-kjpaw_psl.0.1.UPF 
ATOMIC_POSITIONS crystal 
C        0.005849437   0.008899701   0.007121900
C        0.251096138   0.002192275   0.015801033
C        0.503050264   0.008899701   0.007121900
C        0.756890234   0.013780469  -0.011570601
C        0.006852444   0.259223458   0.005793503
C        0.089086788   0.175229558   0.010437645
C        0.256393384   0.255047376   0.014492915
C        0.332675865   0.165351731   0.017140287
C        0.498653992   0.255047376   0.014492915
C        0.586142769   0.175229558   0.010437645
C        0.752371013   0.259223458   0.005793503
C        0.838789631   0.177579262   0.000170654
C        0.003290922   0.506581843   0.007067402
C        0.093049453   0.424711015   0.006471003
C        0.266804379   0.505392274   0.004299577
C        0.349164579   0.417099868   0.009751550
C        0.567935288   0.417099868   0.009751550
C        0.738587895   0.505392274   0.004299577
C        0.831661561   0.424711015   0.006471003
C        0.000927982   0.754444969   0.009374102
C        0.085753842   0.671507686   0.011320201
C        0.253516986   0.754444969   0.009374102
C        0.339627401   0.673194779  -0.002564072
C        0.497919617   0.769739054  -0.021131689
Cl       0.595129149   0.690258301  -0.084506595
C        0.771819436   0.769739054  -0.021131689
C        0.833567376   0.673194779  -0.002564072
C        0.084241932   0.920654540   0.011749699
C        0.336412608   0.920654540   0.011749699
C        0.588857572   0.931123145  -0.010592836
C        0.842265571   0.931123145  -0.010592836
O        0.630566542   0.761133084   0.146939591
O        0.577714611   0.655429220   0.207231434
K_POINTS automatic 
  20 20 1   0 0 0 

