 &CONTROL
                 calculation = 'bands' ,
                      outdir = './tmp/' ,
                  pseudo_dir = '/home/deleted/pseudo_psl' ,
                      prefix = 'GF_op' ,
                   verbosity = 'high' ,
               etot_conv_thr = 1.0D-5 ,
               forc_conv_thr = 4.0D-4 ,
                       nstep = 1000 ,
                    dipfield = .true. ,
 /
 &SYSTEM
                       ibrav = 4,
                           A = 9.88 ,
                           C = 15 ,
                         nat = 34,
                        ntyp = 4,
                     ecutwfc = 40.424239707 ,
                     ecutrho = 404.24239707 ,
                 occupations = 'tetrahedra' ,
                     degauss = 0.01 ,
				   input_dft = 'vdW-DF' ,
 /
 &ELECTRONS
            electron_maxstep = 50001,
                    conv_thr = 1.0D-6 ,
                 mixing_mode = 'local-TF' ,
                 mixing_beta = 0.5 ,
 /
ATOMIC_SPECIES
    C   12.01100  C.revpbe-n-kjpaw_psl.0.1.UPF 
    F   18.99800  F.revpbe-n-kjpaw_psl.0.1.UPF 
    O   15.99940  O.revpbe-n-kjpaw_psl.0.1.UPF 
	H   1.00800   H.revpbe-kjpaw_psl.0.1.UPF
ATOMIC_POSITIONS crystal 
C       -0.005885070  -0.000186685  -0.004238580
C        0.240772236  -0.004509726   0.001706698
C        0.491753037  -0.000382371   0.006991023
C        0.743026698   0.001046082   0.000088531
C       -0.005013710   0.250466471  -0.000174443
C        0.077274614   0.166363655   0.001211800
C        0.244907555   0.247747371   0.002275060
C        0.322379192   0.158951431   0.001464324
C        0.488475395   0.247589663  -0.000176611
C        0.574636691   0.166120410   0.000799543
C        0.740876412   0.250531396   0.000918258
C        0.826159199   0.167056563   0.000165400
C       -0.008049172   0.498598317   0.000195943
C        0.080785316   0.416278979   0.003214625
C        0.254548750   0.498537138   0.010646554
C        0.335558215   0.410321457   0.004385708
C        0.560197318   0.410009184  -0.004129624
C        0.728927662   0.498457458  -0.010209477
C        0.820600311   0.416398294  -0.002819411
C       -0.009356251   0.747406049  -0.005752808
C        0.074972721   0.664125668   0.000427375
C        0.242604244   0.747011067   0.007435426
C        0.328042259   0.666219512   0.021059430
C        0.489281359   0.757919320   0.041999999
F        0.619817210   0.693256294  -0.083508618
C        0.758776868   0.761013052  -0.038162840
C        0.824019473   0.667025204  -0.018989577
C        0.074173976   0.913428792  -0.003366337
C        0.325146319   0.913395610   0.006442904
C        0.576748316   0.918664134   0.016176489
C        0.828428405   0.919701762  -0.014901638
O        0.558089821   0.684966119   0.083089372
O        0.645082796   0.773146110   0.173043824
H        0.643102174   0.871271771   0.167813977
K_POINTS crystal_b 
4
0.0000000000    0.0000000000    0.0000000000 17
0.0000000000    0.5000000000    0.0000000000 10
0.3333333333    0.3333333333    0.0000000000 20
0.0000000000    0.0000000000    0.0000000000 1

