 &CONTROL
                 calculation = 'scf' ,
                      outdir = './tmp/' ,
                  pseudo_dir = '/home/deleted/pseudo_psl' ,
                      prefix = 'GI_op' ,
                    dipfield = .true. ,
                   verbosity = 'high',
                       nstep = 1000,
               forc_conv_thr = 4.0D-4,
               etot_conv_thr = 1.0D-5
 /
 &SYSTEM
                       ibrav = 4,
                           A = 9.88 ,
                           C = 15 ,
                         nat = 32,
                        ntyp = 2,
                     ecutwfc = 40.424239707 ,
                     ecutrho = 404.24239707 ,
                 occupations = 'smearing' ,
                     degauss = 0.01 ,
				   input_dft = 'vdW-DF' ,
 /
 &ELECTRONS
            electron_maxstep = 50001,
                    conv_thr = 1.0D-6 ,
                 mixing_mode = 'local-TF' ,
                 mixing_beta = 0.5 ,
 /
ATOMIC_SPECIES
    C   12.01100  C.revpbe-n-kjpaw_psl.0.1.UPF 
    I  126.90400  I.revpbe-n-kjpaw_psl.0.2.UPF 
ATOMIC_POSITIONS crystal 
C        0.000145381  -0.000145381  -0.001537598
C        0.250166624   0.000333249  -0.001372884
C        0.499709238  -0.000145381  -0.001537598
C        0.749918277  -0.000163447  -0.001084687
C        0.000163447   0.250081723  -0.001084687
C        0.083318781   0.167050839  -0.001255263
C        0.251996992   0.251348207  -0.000151736
C        0.332830760   0.165661520  -0.000775337
C        0.499351215   0.251348207  -0.000151736
C        0.583732057   0.167050839  -0.001255263
C        0.749918277   0.250081723  -0.001084687
C        0.833333333   0.166666667  -0.001173029
C        0.000145381   0.500290762  -0.001537598
C        0.083318781   0.416267943  -0.001255263
C        0.251996992   0.500648785  -0.000151736
C        0.328095126   0.414047564   0.002997022
I        0.500000000   0.500000000   0.185941277
C        0.585952436   0.414047564   0.002997022
C        0.748651793   0.500648785  -0.000151736
C        0.832949161   0.416267943  -0.001255263
C       -0.000333249   0.749833376  -0.001372884
C        0.083192602   0.666385206  -0.001446378
C        0.250166624   0.749833376  -0.001372884
C        0.332830760   0.667169240  -0.000775337
C        0.499351215   0.748003008  -0.000151736
C        0.585952436   0.671904874   0.002997022
C        0.748651793   0.748003008  -0.000151736
C        0.834338480   0.667169240  -0.000775337
C        0.083192602   0.916807398  -0.001446378
C        0.333614794   0.916807398  -0.001446378
C        0.583732057   0.916681219  -0.001255263
C        0.832949161   0.916681219  -0.001255263
K_POINTS automatic 
  16 16 1   0 0 0 

