 &CONTROL
                 calculation = 'scf' ,
                      outdir = './tmp/' ,
                  pseudo_dir = '/home/deleted/pseudo_psl' ,
                      prefix = 'GF_ip' ,
                   verbosity = 'high' ,
               etot_conv_thr = 1.0D-5 ,
               forc_conv_thr = 4.0D-4 ,
                       nstep = 1000 ,
                    dipfield = .true. ,
 /
 &SYSTEM
                       ibrav = 4,
                           A = 9.88 ,
                           C = 15 ,
                         nat = 34,
                        ntyp = 4,
                     ecutwfc = 40.424239707 ,
                     ecutrho = 404.24239707 ,
                 occupations = 'smearing' ,
                     degauss = 0.01 ,
				   input_dft = 'vdW-DF' ,
    nspin = 2 ,
    starting_magnetization(1) = 0.5,
    starting_magnetization(2) = 0.5,
    starting_magnetization(3) = 0.5,
 /
 &ELECTRONS
            electron_maxstep = 50001,
                    conv_thr = 1.0D-6 ,
                 mixing_mode = 'local-TF' ,
                 mixing_beta = 0.5 ,
 /
ATOMIC_SPECIES
    C   12.01100  C.revpbe-n-kjpaw_psl.0.1.UPF 
    F   18.99800  F.revpbe-n-kjpaw_psl.0.1.UPF 
    O   15.99940  O.revpbe-n-kjpaw_psl.0.1.UPF 
    H   1.008000  H.revpbe-kjpaw_psl.0.1.UPF
ATOMIC_POSITIONS (crystal)
C       -0.006112412  -0.016923938   0.014935332
C        0.239678846  -0.022616433   0.014191321
C        0.490742875  -0.021145828   0.011850592
C        0.745777741  -0.015903276   0.006849457
C       -0.003165942   0.233757457   0.001006759
C        0.078085122   0.148856412   0.005204673
C        0.245304034   0.229884126   0.005607323
C        0.321957094   0.141647517   0.012593660
C        0.488089979   0.232715153   0.015951325
C        0.577731299   0.148996351   0.039275904
C        0.745778692   0.234541445   0.008102311
C        0.828607136   0.151992132   0.003398912
C       -0.006140103   0.480956968  -0.000276841
C        0.083010527   0.399247938  -0.002928212
C        0.257659342   0.480856228  -0.007982810
C        0.337917388   0.393073837  -0.000322528
C        0.557323194   0.391145050   0.009786428
C        0.731410653   0.482545037   0.012650091
C        0.822688979   0.398210405   0.004203544
C       -0.009596430   0.727446107   0.014892317
C        0.075716988   0.646806562   0.004414698
C        0.243764540   0.729816847   0.000402280
C        0.330156673   0.650028228  -0.014250341
C        0.489602160   0.745188163  -0.030523915
F        0.565055323   0.679165549  -0.073143683
C        0.750927964   0.738497713   0.052611174
C        0.823335404   0.645158761   0.023179738
C        0.074167057   0.895895092   0.016896674
C        0.325967627   0.895221812   0.008522197
C        0.576018074   0.902459702  -0.004386601
C        0.827717403   0.904318077   0.021018166
O        0.596067915   1.153696037   0.138835249
O        0.641183459   0.685511667   0.106021339
H        0.491258776   1.100624207   0.164682827
K_POINTS automatic 
  16 16 1   0 0 0 

