 &CONTROL
                 calculation = 'relax' ,
                      outdir = './tmp/' ,
                  pseudo_dir = '/home/deleted/pseudo_psl' ,
                      prefix = 'GF_ip' ,
                   verbosity = 'high' ,
               etot_conv_thr = 1.0D-5 ,
               forc_conv_thr = 4.0D-4 ,
                       nstep = 1000 ,
                    dipfield = .true. ,
 /
 &SYSTEM
                       ibrav = 4,
                           A = 9.88 ,
                           C = 15 ,
                         nat = 34,
                        ntyp = 4,
                     ecutwfc = 40.424239707 ,
                     ecutrho = 404.24239707 ,
                 occupations = 'smearing' ,
                     degauss = 0.01 ,
				   input_dft = 'vdW-DF' ,
    nspin = 2 ,
    starting_magnetization(1) = 0.5,
    starting_magnetization(2) = 0.5,
    starting_magnetization(3) = 0.5,
	starting_magnetization(4) = 0.5,
 /
 &ELECTRONS
            electron_maxstep = 50001,
                    conv_thr = 1.0D-6 ,
                 mixing_mode = 'local-TF' ,
                 mixing_beta = 0.5 ,
 /
 &IONS
                ion_dynamics = 'bfgs' ,
 /
ATOMIC_SPECIES
    C   12.01100  C.revpbe-n-kjpaw_psl.0.1.UPF 
    F   18.99800  F.revpbe-n-kjpaw_psl.0.1.UPF 
    O   15.99940  O.revpbe-n-kjpaw_psl.0.1.UPF 
    H   1.008000  H.revpbe-kjpaw_psl.0.1.UPF
ATOMIC_POSITIONS (crystal)
C       -0.007142738  -0.001679813   0.003340719
C        0.236715930  -0.010068691   0.006784798
C        0.488973335  -0.001686142   0.003681575
C        0.743868766   0.004258694  -0.004092743
C       -0.006001016   0.249112486   0.002102339
C        0.075997348   0.164542472   0.004398759
C        0.242871565   0.243021975   0.006085297
C        0.318080060   0.152709726   0.007295727
C        0.483581217   0.243058122   0.006148620
C        0.571990337   0.164560957   0.004572076
C        0.738543696   0.249141874   0.002124957
C        0.825894622   0.168374623  -0.000180384
C       -0.010495152   0.495601933   0.002291219
C        0.080662907   0.414306544   0.002280131
C        0.255273080   0.493626676   0.001925881
C        0.338407455   0.405155858   0.004020295
C        0.550134764   0.405204277   0.003918371
C        0.721761094   0.493685103   0.001757641
C        0.817044914   0.414342472   0.002189057
C       -0.013734480   0.742962979   0.003591087
C        0.071996035   0.660521168   0.004006318
C        0.240180643   0.742949600   0.003873543
C        0.328451521   0.661315117  -0.000020083
C        0.487773461   0.760929878  -0.004579311
F        0.582089801   0.680562527  -0.031299811
C        0.756654061   0.760976654  -0.004881550
C        0.816373228   0.661381314  -0.000315914
C        0.070013897   0.909007380   0.005018465
C        0.322507522   0.908992014   0.005353293
C        0.577393462   0.920733453  -0.003202173
C        0.826865124   0.920772426  -0.003403457
O        0.681690723   0.878577425   0.196649918
O        0.612342404   0.738757062   0.168565338
H        0.51092779    0.875962965   0.183269364
K_POINTS automatic 
  4 4 1   0 0 0 

