 &CONTROL
                 calculation = 'scf' ,
                      outdir = './tmp_subs/' ,
                  pseudo_dir = '/home/deleted/pseudo_psl' ,
                      prefix = 'GF_op_subs' ,
                   verbosity = 'high' ,
               etot_conv_thr = 1.0D-5 ,
               forc_conv_thr = 4.0D-4 ,
                       nstep = 1000 ,
                    dipfield = .true. ,
 /
 &SYSTEM
                       ibrav = 4,
                           A = 9.88 ,
                           C = 15 ,
                         nat = 31,
                        ntyp = 2,
                     ecutwfc = 40.424239707 ,
                     ecutrho = 404.24239707 ,
                 occupations = 'smearing' ,
                     degauss = 0.01 ,
				   input_dft = 'vdW-DF' ,
 /
 &ELECTRONS
            electron_maxstep = 50001,
                    conv_thr = 1.0D-6 ,
                 mixing_mode = 'local-TF' ,
                 mixing_beta = 0.5 ,
 /
ATOMIC_SPECIES
    C   12.01100  C.revpbe-n-kjpaw_psl.0.1.UPF 
    F   18.99800  F.revpbe-n-kjpaw_psl.0.1.UPF 
ATOMIC_POSITIONS crystal 
C        0.001603301   0.000900548   0.003601927
C        0.248265949  -0.003468104   0.012766445
C        0.499297247   0.000900548   0.003601927
C        0.752471047   0.004942096  -0.011730077
C        0.001099777   0.250822525   0.004694041
C        0.083223237   0.166194912   0.008419147
C        0.248162098   0.245317561   0.018171227
C        0.330441299   0.160882599   0.019351697
C        0.497155464   0.245317561   0.018171227
C        0.582971674   0.166194912   0.008419147
C        0.749722748   0.250822525   0.004694041
C        0.834479723   0.168959447  -0.001203874
C       -0.000697232   0.498605534   0.005401044
C        0.085108974   0.416334639   0.006575952
C        0.255145966   0.497040323   0.009206232
C        0.331245102   0.409066553   0.021631975
C        0.577821450   0.409066553   0.021631975
C        0.741894357   0.497040323   0.009206232
C        0.831225664   0.416334639   0.006575952
C       -0.001899250   0.748103448   0.005782270
C        0.082492585   0.664985171   0.007627711
C        0.250002698   0.748103448   0.005782270
C        0.336609633   0.664264760  -0.000682197
C        0.494282563   0.762524595  -0.016329049
F        0.596933780   0.693867562  -0.055662008
C        0.768242032   0.762524595  -0.016329049
C        0.827655126   0.664264760  -0.000682197
C        0.081380357   0.914311659   0.007631842
C        0.332931301   0.914311659   0.007631842
C        0.585906676   0.922416989  -0.010444200
C        0.836510312   0.922416989  -0.010444200
O        0.491647672   0.483295344   0.040264068
K_POINTS automatic 
  16 16 1   0 0 0 

