 &CONTROL
                 calculation = 'scf' ,
                      outdir = './tmp_subs/' ,
                  pseudo_dir = '/home/deleted/pseudo_psl' ,
                      prefix = 'GBr_op_subs' ,
                   verbosity = 'high' ,
               etot_conv_thr = 1.0D-5 ,
               forc_conv_thr = 4.0D-4 ,
                       nstep = 1000 ,
                    dipfield = .true. ,
 /
 &SYSTEM
                       ibrav = 4,
                           A = 9.88 ,
                           C = 15 ,
                         nat = 31,
                        ntyp = 2,
                     ecutwfc = 40.424239707 ,
                     ecutrho = 404.24239707 ,
                 occupations = 'smearing' ,
                     degauss = 0.01 ,
				   input_dft = 'vdW-DF' ,
 /
 &ELECTRONS
            electron_maxstep = 50001,
                    conv_thr = 1.0D-6 ,
                 mixing_mode = 'local-TF' ,
                 mixing_beta = 0.5 ,
 /
ATOMIC_SPECIES
    C   12.01100  C.revpbe-n-kjpaw_psl.0.1.UPF 
   Br   79.90350  Br.revpbe-n-kjpaw_psl.0.2.UPF 
ATOMIC_POSITIONS crystal 
C       -0.000601829   0.000956346  -0.002254291
C        0.245658885  -0.009590680  -0.001842753
C        0.502214108   0.000819139  -0.002225039
C        0.758156229   0.015981280  -0.002689460
C        0.008285161   0.257566299  -0.002170321
C        0.085810023   0.168230731  -0.002085672
C        0.252789748   0.244966317  -0.002212143
C        0.326823053   0.152966237  -0.002060550
C        0.492680908   0.244780414  -0.002347562
C        0.582901504   0.168010934  -0.002265139
C        0.749734668   0.257484484  -0.002249359
C        0.839524771   0.178585963  -0.002327370
C        0.001576627   0.502754288  -0.002234986
C        0.096637064   0.422378918  -0.002292117
C        0.274700753   0.500509986  -0.002563310
C        0.352919248   0.407128808  -0.002504727
C        0.554741918   0.407006014  -0.002707726
C        0.726069030   0.500198991  -0.002449911
C        0.825987888   0.422398802  -0.002235022
C       -0.011663047   0.746784324  -0.002096268
C        0.083478400   0.666330088  -0.002241960
C        0.259004023   0.746516337  -0.002363195
C        0.358361527   0.668791070  -0.002644699
C        0.530574934   0.761893874  -0.001231793
Br       0.557149699   0.599713925   0.228626099
C        0.732652579   0.762197521  -0.003149364
C        0.810567297   0.669042190  -0.002452029
C        0.076785727   0.911512596  -0.001982762
C        0.335301100   0.911494568  -0.001977809
C        0.592591392   0.924472345  -0.002565198
C        0.832526124   0.924288662  -0.002856859
K_POINTS automatic 
  16 16 1   0 0 0 

