 &CONTROL
                 calculation = 'relax' ,
                      outdir = './tmp/' ,
                  pseudo_dir = '/home/deleted/pseudo_psl' ,
                      prefix = 'GBr_op' ,
                   verbosity = 'high' ,
               etot_conv_thr = 1.0D-5 ,
               forc_conv_thr = 4.0D-4 ,
                       nstep = 1000 ,
                    dipfield = .true. ,
 /
 &SYSTEM
                       ibrav = 4,
                           A = 9.88 ,
                           C = 15 ,
                         nat = 32,
                        ntyp = 3,
                     ecutwfc = 40.424239707 ,
                     ecutrho = 404.24239707 ,
                 occupations = 'smearing' ,
                     degauss = 0.01 ,
				   input_dft = 'vdW-DF' ,
 /
 &ELECTRONS
            electron_maxstep = 50001,
                    conv_thr = 1.0D-6 ,
                 mixing_mode = 'local-TF' ,
                 mixing_beta = 0.5 ,
 /
 &IONS
                ion_dynamics = 'bfgs' ,
 /
ATOMIC_SPECIES
    C   12.01100  C.revpbe-n-kjpaw_psl.0.1.UPF 
   Br   79.90350  Br.revpbe-n-kjpaw_psl.0.2.UPF 
    O   15.99940  O.revpbe-n-kjpaw_psl.0.1.UPF 
ATOMIC_POSITIONS crystal 
C       -0.000500754   0.000925828  -0.002368328
C        0.245765466  -0.009584650  -0.001516058
C        0.502255826   0.000723551  -0.001589247
C        0.758143787   0.015811352  -0.002725875
C        0.008270264   0.257433770  -0.002625428
C        0.085865312   0.168184281  -0.002426329
C        0.252860949   0.244971762  -0.002372831
C        0.326913966   0.152971434  -0.001852008
C        0.492766094   0.244717497  -0.002062710
C        0.582941167   0.167898454  -0.001944130
C        0.749765060   0.257336895  -0.002313665
C        0.839510826   0.178406430  -0.002590956
C        0.001614529   0.502658486  -0.002564766
C        0.096597461   0.422256033  -0.002698537
C        0.274630799   0.500435748  -0.002843746
C        0.352893344   0.407103455  -0.002724338
C        0.554922619   0.406934934  -0.002608891
C        0.726202570   0.500096397  -0.002655539
C        0.826045642   0.422259577  -0.002528986
C       -0.011541204   0.746760748  -0.002135523
C        0.083506377   0.666247509  -0.002303707
C        0.258968885   0.746454392  -0.002069192
C        0.358254642   0.668713191  -0.002502023
C        0.530425891   0.761788318  -0.000629039
Br       0.555604541   0.598872540   0.226460671
C        0.732882262   0.762119558  -0.002925967
C        0.810708251   0.668970543  -0.002526568
C        0.076895477   0.911490116  -0.001877463
C        0.335340112   0.911456194  -0.001389699
C        0.592595272   0.924369818  -0.002058281
C        0.832603077   0.924178246  -0.002878371
O        0.562616244   0.760751448   0.165967030
K_POINTS automatic 
  4 4 1   0 0 0 

