 &CONTROL
                 calculation = 'scf' ,
                      outdir = './tmp_subs/' ,
                  pseudo_dir = '/home/deleted/pseudo_psl' ,
                      prefix = 'GI_ip-subs' ,
                   verbosity = 'high' ,
               etot_conv_thr = 1.0D-5 ,
               forc_conv_thr = 4.0D-4 ,
                       nstep = 1000 ,
                    dipfield = .true. ,
 /
 &SYSTEM
                       ibrav = 4,
                           A = 9.88 ,
                           C = 15 ,
                         nat = 31,
                        ntyp = 2,
                     ecutwfc = 40.424239707 ,
                     ecutrho = 404.24239707 ,
                 occupations = 'smearing' ,
                     degauss = 0.01 ,
				   input_dft = 'vdW-DF' ,
    nspin = 2 ,
    starting_magnetization(1) = 0.5,
    starting_magnetization(2) = 0.5,
 /
 &ELECTRONS
            electron_maxstep = 50001,
                    conv_thr = 1.0D-6 ,
                 mixing_mode = 'local-TF' ,
                 mixing_beta = 0.5 ,
 /
ATOMIC_SPECIES
    C   12.01100  C.revpbe-n-kjpaw_psl.0.1.UPF 
    I  126.90400  I.revpbe-n-kjpaw_psl.0.2.UPF 
ATOMIC_POSITIONS (crystal)
C        0.002104619   0.002444642   0.002005054
C        0.254734373   0.009468747   0.005910344
C        0.500340022   0.002444642   0.002005054
C        0.748729983  -0.002540032  -0.007871042
C       -0.001880163   0.249276344   0.009350214
C        0.083916221   0.169603566   0.002011247
C        0.250778048   0.255999887  -0.009461528
C        0.337299041   0.174598083  -0.007850093
C        0.505221839   0.255999887  -0.009461528
C        0.585687345   0.169603566   0.002011247
C        0.751156506   0.249276344   0.009350214
C        0.831294455   0.162588911   0.005897831
C        0.001016203   0.502032405   0.025232267
C        0.078898810   0.416054134   0.017049672
C        0.240525123   0.500819807   0.000742524
C        0.315557017   0.419031529  -0.019262432
C        0.603474511   0.419031529  -0.019262432
C        0.760294685   0.500819807   0.000742524
C        0.837155323   0.416054134   0.017049672
C        0.007122889   0.755993367   0.017040667
C        0.085011065   0.670022130   0.025222563
C        0.248870478   0.755993367   0.017040667
C        0.325731660   0.671237866   0.000745269
C        0.482561622   0.753015872  -0.019252461
I        0.543010130   0.586020261  -0.065647222
C        0.770454249   0.753015872  -0.019252461
C        0.845506205   0.671237866   0.000745269
C        0.087913134   0.922783606   0.009347867
C        0.334870472   0.922783606   0.009347867
C        0.580809517   0.916058659  -0.009473565
C        0.835249141   0.916058659  -0.009473565
K_POINTS automatic 
  16 16 1   0 0 0 

