 &CONTROL
                 calculation = 'bands' ,
                      outdir = './tmp/' ,
                  pseudo_dir = '/home/deleted/pseudo_psl' ,
                      prefix = 'MVG_tv' ,
                    dipfield = .true. ,
                   verbosity = 'high',
                       nstep = 1000,
               forc_conv_thr = 4.0D-4,
               etot_conv_thr = 1.0D-5
 /
 &SYSTEM
                       ibrav = 4,
                           A = 9.88 ,
                           C = 15 ,
                         nat = 33,
                        ntyp = 2,
                     ecutwfc = 40.424239707 ,
                     ecutrho = 404.24239707 ,
                 occupations = 'tetrahedra' ,
                     degauss = 0.01 ,
				   input_dft = 'vdW-DF' ,
    nspin = 2 ,
    starting_magnetization(1) = 0.5,
	starting_magnetization(2) = 0.5,
 /
 &ELECTRONS
            electron_maxstep = 50001,
                    conv_thr = 1.0D-6 ,
                 mixing_mode = 'local-TF' ,
                 mixing_beta = 0.5 ,
 /
 &IONS
                ion_dynamics = 'bfgs' ,
 /
ATOMIC_SPECIES
    C   12.01100  C.revpbe-n-kjpaw_psl.0.1.UPF 
    O   15.99940  O.revpbe-n-kjpaw_psl.0.1.UPF 
ATOMIC_POSITIONS crystal 
C        0.000187195  -0.000187195   0.000110389
C        0.250002729   0.000005458   0.003314614
C        0.499625611  -0.000187195   0.000110389
C        0.749947449  -0.000105104  -0.001420516
C        0.000105104   0.250052551  -0.001420516
C        0.083413379   0.166916091  -0.000727832
C        0.251072351   0.249962442   0.001637718
C        0.332817307   0.165634613   0.003276983
C        0.498890090   0.249962442   0.001637718
C        0.583502711   0.166916091  -0.000727832
C        0.749947449   0.250052551  -0.001420516
C        0.833333333   0.166666667  -0.001697769
C        0.000187195   0.500374389   0.000110389
C        0.083413379   0.416497289  -0.000727832
C        0.251072351   0.501109910   0.001637718
C        0.327053630   0.413526815   0.001064692
C        0.586473185   0.413526815   0.001064692
C        0.750037558   0.501109910   0.001637718
C        0.833083909   0.416497289  -0.000727832
C       -0.000005458   0.749997271   0.003314614
C        0.083307514   0.666615029   0.002717101
C        0.250002729   0.749997271   0.003314614
C        0.332817307   0.667182693   0.003276983
C        0.498890090   0.748927649   0.001637718
C        0.586473185   0.672946370   0.001064692
C        0.750037558   0.748927649   0.001637718
C        0.834365387   0.667182693   0.003276983
C        0.083307514   0.916692486   0.002717101
C        0.333384971   0.916692486   0.002717101
C        0.583502711   0.916586621  -0.000727832
C        0.833083909   0.916586621  -0.000727832
O        0.500000000   0.500000000   0.024212560
O        0.500000000   0.500000000   0.144836105
K_POINTS crystal_b 
4
0.0000000000    0.0000000000    0.0000000000 17
0.0000000000    0.5000000000    0.0000000000 10
0.3333333333    0.3333333333    0.0000000000 20
0.0000000000    0.0000000000    0.0000000000 1

