 &CONTROL
                 calculation = 'scf' ,
                      outdir = './tmp_subs/' ,
                  pseudo_dir = '/home/deleted/pseudo_psl' ,
                      prefix = 'GCl_op-subs' ,
                   verbosity = 'high' ,
               etot_conv_thr = 1.0D-5 ,
               forc_conv_thr = 4.0D-4 ,
                       nstep = 1000 ,
                    dipfield = .true. ,
 /
 &SYSTEM
                       ibrav = 4,
                           A = 9.88 ,
                           C = 15 ,
                         nat = 31,
                        ntyp = 2,
                     ecutwfc = 40.424239707 ,
                     ecutrho = 404.24239707 ,
                 occupations = 'smearing' ,
                     degauss = 0.01 ,
				   input_dft = 'vdW-DF' ,
    nspin = 2 ,
    starting_magnetization(1) = 0.5,
    starting_magnetization(2) = 0.5,
 /
 &ELECTRONS
            electron_maxstep = 50001,
                    conv_thr = 1.0D-6 ,
                 mixing_mode = 'local-TF' ,
                 mixing_beta = 0.5 ,
 /
ATOMIC_SPECIES
    C   12.01100  C.revpbe-n-kjpaw_psl.0.1.UPF 
   Cl   35.45200  Cl.revpbe-n-kjpaw_psl.0.3.0.UPF 
ATOMIC_POSITIONS (crystal)
C        0.000030840   0.002857988  -0.007350468
C        0.246219711  -0.007560579  -0.007409878
C        0.502827149   0.002857988  -0.007350468
C        0.759038909   0.018077817  -0.007116577
C        0.009098476   0.259525981  -0.007342199
C        0.086455460   0.170074023  -0.007299572
C        0.253452372   0.246860890  -0.007719960
C        0.327432390   0.154864781  -0.007389539
C        0.493408518   0.246860890  -0.007719960
C        0.583618561   0.170074023  -0.007299572
C        0.750427505   0.259525981  -0.007342199
C        0.840240137   0.180480275  -0.007052913
C        0.002378962   0.504757925  -0.008156003
C        0.097684613   0.424322523  -0.007994973
C        0.275495361   0.502141927  -0.008568966
C        0.353699322   0.408982562  -0.008595060
C        0.555283239   0.408982562  -0.008595060
C        0.726646566   0.502141927  -0.008568966
C        0.826637909   0.424322523  -0.007994973
C       -0.011216962   0.748598143  -0.008228141
C        0.084075690   0.668151381  -0.008323659
C        0.259815105   0.748598143  -0.008228141
C        0.359822341   0.670850662  -0.008601369
C        0.531179230   0.763995408  -0.008473697
Cl       0.478539140   0.457078282   0.231612390
C        0.732816179   0.763995408  -0.008473697
C        0.811028320   0.670850662  -0.008601369
C        0.077381289   0.913395751  -0.007639331
C        0.336014461   0.913395751  -0.007639331
C        0.593049717   0.926096447  -0.007570886
C        0.833046729   0.926096447  -0.007570886
K_POINTS automatic 
  16 16 1   0 0 0 

