 &CONTROL
                 calculation = 'nscf' ,
                      outdir = './tmp/' ,
                  pseudo_dir = '/home/deleted/pseudo_psl' ,
                      prefix = 'GBr_op' ,
                   verbosity = 'high' ,
               etot_conv_thr = 1.0D-5 ,
               forc_conv_thr = 4.0D-4 ,
                       nstep = 1000 ,
                    dipfield = .true. ,
 /
 &SYSTEM
                       ibrav = 4,
                           A = 9.88 ,
                           C = 15 ,
                         nat = 34,
                        ntyp = 4,
                     ecutwfc = 40.424239707 ,
                     ecutrho = 404.24239707 ,
                 occupations = 'tetrahedra' ,
                     degauss = 0.01 ,
				   input_dft = 'vdW-DF' ,
    nspin = 2 ,
    starting_magnetization(1) = 0.5,
    starting_magnetization(2) = 0.5,
    starting_magnetization(3) = 0.5,
 /
 &ELECTRONS
            electron_maxstep = 50001,
                    conv_thr = 1.0D-6 ,
                 mixing_mode = 'local-TF' ,
                 mixing_beta = 0.5 ,
 /
ATOMIC_SPECIES
    C   12.01100  C.revpbe-n-kjpaw_psl.0.1.UPF 
   Br   79.90350  Br.revpbe-n-kjpaw_psl.0.2.UPF 
    O   15.99940  O.revpbe-n-kjpaw_psl.0.1.UPF 
    H   1.008000  H.revpbe-kjpaw_psl.0.1.UPF
ATOMIC_POSITIONS (crystal)
C        0.001113326   0.002508816  -0.011759323
C        0.248591058  -0.006680773  -0.011201174
C        0.504466490   0.002979353  -0.009972890
C        0.759737805   0.017176381  -0.010376093
C        0.009707937   0.259327106  -0.009727325
C        0.086964454   0.169831734  -0.011105804
C        0.254022960   0.247365365  -0.010738330
C        0.330804380   0.157050318  -0.008295858
C        0.494544478   0.245559288  -0.001785770
C        0.584952041   0.170156424  -0.006029745
C        0.752419120   0.259183291  -0.006414714
C        0.840892891   0.180281701  -0.008654782
C        0.003908414   0.504955040  -0.010296911
C        0.097294861   0.424188143  -0.009701664
C        0.273367386   0.502384486  -0.010268026
C        0.348993506   0.409181180  -0.011070189
C        0.560299253   0.412122086   0.010522505
C        0.735325533   0.504142064  -0.006991865
C        0.829962247   0.425357156  -0.008323792
C       -0.007468685   0.749533083  -0.012751358
C        0.086372616   0.669008671  -0.011638068
C        0.261359350   0.749159430  -0.011392234
C        0.360058548   0.671027943  -0.011255057
C        0.532068870   0.763063451  -0.011869557
Br       0.543705558   0.451725233   0.156468474
C        0.733855964   0.762846887  -0.011721558
C        0.814468507   0.670115432  -0.011531927
C        0.080223826   0.914444492  -0.012732493
C        0.337762006   0.914374481  -0.010807961
C        0.594357727   0.925812261  -0.011256547
C        0.833851205   0.924966360  -0.011567237
O        0.468943576   0.821146222   0.208535915
O        0.580481904   0.956468312   0.209330208
H        0.579415258   0.836045227   0.401213186
K_POINTS automatic 
  20 20 1   0 0 0 

