 &CONTROL
                 calculation = 'nscf' ,
                      outdir = './tmp/' ,
                  pseudo_dir = '/home/deleted/pseudo_psl' ,
                      prefix = 'GCl_ip' ,
                   verbosity = 'high' ,
               etot_conv_thr = 1.0D-5 ,
               forc_conv_thr = 4.0D-4 ,
                       nstep = 1000 ,
                    dipfield = .true. ,
 /
 &SYSTEM
                       ibrav = 4,
                           A = 9.88 ,
                           C = 15 ,
                         nat = 34,
                        ntyp = 4,
                     ecutwfc = 40.424239707 ,
                     ecutrho = 404.24239707 ,
                 occupations = 'tetrahedra' ,
                     degauss = 0.01 ,
				   input_dft = 'vdW-DF' ,
 /
 &ELECTRONS
            electron_maxstep = 50001,
                    conv_thr = 1.0D-6 ,
                 mixing_mode = 'local-TF' ,
                 mixing_beta = 0.5 ,
 /
ATOMIC_SPECIES
    C   12.01100  C.revpbe-n-kjpaw_psl.0.1.UPF 
   Cl   35.45200  Cl.revpbe-n-kjpaw_psl.0.3.0.UPF 
    O   15.99940  O.revpbe-n-kjpaw_psl.0.1.UPF 
    H   1.008000  H.revpbe-kjpaw_psl.0.1.UPF
ATOMIC_POSITIONS crystal 
C       -0.015539935  -0.003551860   0.006716399
C        0.229783659  -0.010574518   0.015001881
C        0.481792769  -0.003791676   0.007207953
C        0.735992929   0.001339557  -0.012264824
C       -0.014686037   0.246765156   0.006071182
C        0.067403075   0.162393904   0.010424993
C        0.234857571   0.242386884   0.014573854
C        0.311405208   0.152598667   0.016816578
C        0.477104522   0.242021867   0.014731290
C        0.564585049   0.162329574   0.010776513
C        0.731012510   0.246827750   0.006241696
C        0.817511008   0.165192272   0.000151753
C       -0.018395728   0.494067029   0.007725109
C        0.071395148   0.412293427   0.006950337
C        0.245105973   0.492676242   0.004334342
C        0.327605424   0.404212711   0.009872789
C        0.546730494   0.404389402   0.010484238
C        0.716521039   0.492694371   0.006727198
C        0.809905381   0.411984599   0.007571444
C       -0.019949146   0.742432955   0.009478574
C        0.064381850   0.659289335   0.011158788
C        0.232189400   0.741807842   0.009133917
C        0.318335449   0.660318180  -0.002616643
C        0.476480684   0.756959735  -0.022340371
Cl       0.574213352   0.677641505  -0.085312149
C        0.750094136   0.756580520  -0.021648230
C        0.811192369   0.660969714   0.001739058
C        0.063056637   0.907843435   0.010982186
C        0.315179123   0.907981013   0.011290963
C        0.567598656   0.918087921  -0.010749424
C        0.821103163   0.918506103  -0.011270117
O        0.632840386   0.656763482   0.162890971
O        0.775165183   0.652812983   0.163399488
H        0.669326560   0.768957700   0.167509181
K_POINTS automatic 
  20 20 1   0 0 0 

