 &CONTROL
                 calculation = 'scf' ,
                      outdir = './tmp/' ,
                  pseudo_dir = '/home/deleted/pseudo_psl' ,
                      prefix = 'GCl_op' ,
                   verbosity = 'high' ,
               etot_conv_thr = 1.0D-5 ,
               forc_conv_thr = 4.0D-4 ,
                       nstep = 1000 ,
                    dipfield = .true. ,
 /
 &SYSTEM
                       ibrav = 4,
                           A = 9.88 ,
                           C = 15 ,
                         nat = 33,
                        ntyp = 3,
                     ecutwfc = 40.424239707 ,
                     ecutrho = 404.24239707 ,
                 occupations = 'smearing' ,
                     degauss = 0.01 ,
				   input_dft = 'vdW-DF' ,
    nspin = 2 ,
    starting_magnetization(1) = 0.5,
    starting_magnetization(2) = 0.5,
    starting_magnetization(3) = 0.5,
 /
 &ELECTRONS
            electron_maxstep = 50001,
                    conv_thr = 1.0D-6 ,
                 mixing_mode = 'local-TF' ,
                 mixing_beta = 0.5 ,
 /
ATOMIC_SPECIES
    C   12.01100  C.revpbe-n-kjpaw_psl.0.1.UPF 
   Cl   35.45200  Cl.revpbe-n-kjpaw_psl.0.3.0.UPF 
    O   15.99940  O.revpbe-n-kjpaw_psl.0.1.UPF 
ATOMIC_POSITIONS (crystal)
C        0.011729226   0.005996369  -0.002227779
C        0.257126012  -0.000510098  -0.010993839
C        0.509021060   0.006007019  -0.002857026
C        0.762794232   0.010861504   0.016305276
C        0.012810804   0.256459698  -0.001183798
C        0.094989408   0.172412594  -0.005714868
C        0.262243052   0.252199834  -0.010182376
C        0.338718438   0.162712190  -0.012424070
C        0.504673267   0.252211294  -0.010257070
C        0.592175474   0.172419389  -0.005942609
C        0.758410540   0.256405307  -0.001204084
C        0.844753308   0.174723990   0.004533661
C        0.009321779   0.503814915  -0.002761451
C        0.098880862   0.422015200  -0.002301384
C        0.272401557   0.502665185  -0.000896892
C        0.354392307   0.414412610  -0.006491011
C        0.574607794   0.414433771  -0.006191408
C        0.744932314   0.502590642  -0.000102195
C        0.837948176   0.421987804  -0.001973396
C        0.006892280   0.751622910  -0.004903083
C        0.091830023   0.668820655  -0.007335766
C        0.259632735   0.751681545  -0.006054177
C        0.346071698   0.670582772   0.005361554
C        0.503891142   0.766445496   0.025566143
Cl       0.600203858   0.687728494   0.090255659
C        0.776721317   0.766337820   0.026291539
C        0.839302552   0.670528662   0.006920661
C        0.090276272   0.917947164  -0.006844362
C        0.342465013   0.917944401  -0.007565358
C        0.594757341   0.927962596   0.014729963
C        0.847885286   0.927922626   0.015165159
O        0.344840264   0.607878738   0.220846162
O        0.274041034   0.685097333   0.219435362
K_POINTS automatic 
  16 16 1   0 0 0 

