 &CONTROL
                 calculation = 'relax' ,
                      outdir = './tmp/' ,
                  pseudo_dir = '/home/deleted/pseudo_psl' ,
                      prefix = 'GBr_ip' ,
                   verbosity = 'high' ,
               etot_conv_thr = 1.0D-5 ,
               forc_conv_thr = 4.0D-4 ,
                       nstep = 1000 ,
                    dipfield = .true. ,
 /
 &SYSTEM
                       ibrav = 4,
                           A = 9.88 ,
                           C = 15 ,
                         nat = 34,
                        ntyp = 4,
                     ecutwfc = 40.424239707 ,
                     ecutrho = 404.24239707 ,
                 occupations = 'smearing' ,
                     degauss = 0.01 ,
				   input_dft = 'vdW-DF' ,
    nspin = 2 ,
    starting_magnetization(1) = 0.5,
    starting_magnetization(2) = 0.5,
    starting_magnetization(3) = 0.5,
	starting_magnetization(4) = 0.5,
 /
 &ELECTRONS
            electron_maxstep = 50001,
                    conv_thr = 1.0D-6 ,
                 mixing_mode = 'local-TF' ,
                 mixing_beta = 0.5 ,
 /
 &IONS
                ion_dynamics = 'bfgs' ,
 /
ATOMIC_SPECIES
    C   12.01100  C.revpbe-n-kjpaw_psl.0.1.UPF 
   Br   79.90350  Br.revpbe-n-kjpaw_psl.0.2.UPF 
    O   15.99940  O.revpbe-n-kjpaw_psl.0.1.UPF 
    H   1.008000  H.revpbe-kjpaw_psl.0.1.UPF
ATOMIC_POSITIONS (crystal)
C        0.003751280   0.005065079  -0.002980127
C        0.256221626   0.011689545  -0.000292256
C        0.502058892   0.004986626  -0.004597733
C        0.750177298  -0.000251823  -0.010594336
C       -0.000095857   0.252043647   0.001112549
C        0.085617478   0.172168803  -0.004103776
C        0.253178544   0.259110248  -0.012617979
C        0.339020127   0.177423088  -0.010062623
C        0.506606114   0.259154754  -0.010424771
C        0.587284011   0.172090121  -0.003022037
C        0.752847285   0.251980768   0.002649242
C        0.833076346   0.165461758  -0.000336215
C        0.002904449   0.504584010   0.012707068
C        0.080709366   0.418849349   0.005347864
C        0.243149704   0.503647120  -0.008502791
C        0.319525622   0.422044737  -0.022831345
C        0.603118682   0.422522757  -0.016777736
C        0.760716559   0.503609043  -0.001655716
C        0.838947851   0.418583004   0.008795092
C        0.008965023   0.758627912   0.008652009
C        0.086974298   0.672673800   0.012630112
C        0.250484293   0.758389944   0.004897501
C        0.328098897   0.673653968  -0.009101036
C        0.485885652   0.755223567  -0.024314557
Br       0.545562283   0.588468189  -0.046103960
C        0.769376514   0.754713062  -0.017646620
C        0.845753528   0.673624215  -0.001928358
C        0.089471944   0.925212127   0.002608544
C        0.336480869   0.925134013   0.000693094
C        0.582616839   0.918035999  -0.013510884
C        0.836067626   0.918039724  -0.010889010
O        0.534021853   0.605946127   0.173425807
O        0.443873809   0.653707948   0.198774987
H        0.419507469   0.495002207   0.19076621
K_POINTS automatic 
  4 4 1   0 0 0 

