 &CONTROL
                 calculation = 'bands' ,
                      outdir = './tmp/' ,
                  pseudo_dir = '/home/deleted/pseudo_psl' ,
                      prefix = 'GF_ip' ,
                   verbosity = 'high' ,
               etot_conv_thr = 1.0D-5 ,
               forc_conv_thr = 4.0D-4 ,
                       nstep = 1000 ,
                    dipfield = .true. ,
 /
 &SYSTEM
                       ibrav = 4,
                           A = 9.88 ,
                           C = 15 ,
                         nat = 34,
                        ntyp = 4,
                     ecutwfc = 40.424239707 ,
                     ecutrho = 404.24239707 ,
                 occupations = 'tetrahedra' ,
                     degauss = 0.01 ,
				   input_dft = 'vdW-DF' ,
    nspin = 2 ,
    starting_magnetization(1) = 0.5,
    starting_magnetization(2) = 0.5,
    starting_magnetization(3) = 0.5,
 /
 &ELECTRONS
            electron_maxstep = 50001,
                    conv_thr = 1.0D-6 ,
                 mixing_mode = 'local-TF' ,
                 mixing_beta = 0.5 ,
 /
ATOMIC_SPECIES
    C   12.01100  C.revpbe-n-kjpaw_psl.0.1.UPF 
    F   18.99800  F.revpbe-n-kjpaw_psl.0.1.UPF 
    O   15.99940  O.revpbe-n-kjpaw_psl.0.1.UPF 
    H   1.008000  H.revpbe-kjpaw_psl.0.1.UPF
ATOMIC_POSITIONS (crystal)
C        0.006212219   0.000073133  -0.003045170
C        0.250309864  -0.007971086  -0.000011045
C        0.502327239   0.000020370  -0.003998426
C        0.757118979   0.005791864  -0.010877391
C        0.007462792   0.250919857  -0.003711483
C        0.089365975   0.166345509  -0.001844912
C        0.256232413   0.244909608  -0.000342047
C        0.331698471   0.154858929   0.000699349
C        0.497251486   0.244818058  -0.000400088
C        0.585543346   0.166220786  -0.002194242
C        0.752046993   0.250806974  -0.003979985
C        0.839229047   0.169826562  -0.006022984
C        0.003130748   0.497487586  -0.003913266
C        0.094024165   0.416182019  -0.003782543
C        0.268517538   0.495629104  -0.004959547
C        0.350937634   0.407105005  -0.002678032
C        0.564602190   0.406938518  -0.002465445
C        0.735742283   0.495374668  -0.004621826
C        0.830916742   0.416093260  -0.003865093
C        0.000031930   0.744974875  -0.002862178
C        0.085629794   0.662543998  -0.002798706
C        0.253638442   0.745092043  -0.003836249
C        0.341820339   0.663447264  -0.008289997
C        0.500171433   0.763087883  -0.015784197
F        0.595114522   0.680709978  -0.034340427
C        0.770471779   0.762658189  -0.012697768
C        0.830069611   0.663295877  -0.006751802
C        0.083613924   0.911045815  -0.001525730
C        0.335965279   0.910987410  -0.002232001
C        0.590644138   0.922426235  -0.011286477
C        0.840123272   0.922381653  -0.009773516
O        0.444121678   0.719284763   0.192078646
O        0.566262641   0.690939634   0.168301257
H        0.545999982   0.600910071   0.205512788
K_POINTS automatic 
  20 20 1   0 0 0 

