 &CONTROL
                 calculation = 'scf' ,
                      outdir = './tmp_subs/' ,
                  pseudo_dir = '/home/deleted/pseudo_psl' ,
                      prefix = 'GCl_ip-subs' ,
                   verbosity = 'high' ,
               etot_conv_thr = 1.0D-5 ,
               forc_conv_thr = 4.0D-4 ,
                       nstep = 1000 ,
                    dipfield = .true. ,
 /
 &SYSTEM
                       ibrav = 4,
                           A = 9.88 ,
                           C = 15 ,
                         nat = 31,
                        ntyp = 2,
                     ecutwfc = 40.424239707 ,
                     ecutrho = 404.24239707 ,
                 occupations = 'smearing' ,
                     degauss = 0.01 ,
				   input_dft = 'vdW-DF' ,
    nspin = 2 ,
    starting_magnetization(1) = 0.5,
    starting_magnetization(2) = 0.5,
 /
 &ELECTRONS
            electron_maxstep = 50001,
                    conv_thr = 1.0D-6 ,
                 mixing_mode = 'local-TF' ,
                 mixing_beta = 0.5 ,
 /
ATOMIC_SPECIES
    C   12.01100  C.revpbe-n-kjpaw_psl.0.1.UPF 
   Cl   35.45200  Cl.revpbe-n-kjpaw_psl.0.3.0.UPF 
ATOMIC_POSITIONS (crystal)
C        0.001851956   0.002527824  -0.000695141
C        0.254298626   0.008597250   0.000150566
C        0.500675868   0.002527824  -0.000695141
C        0.748737526  -0.002524948  -0.001855167
C       -0.001294074   0.249973910   0.000747211
C        0.084348976   0.169828605  -0.000632536
C        0.252756783   0.257476319  -0.002232658
C        0.337420919   0.174841839  -0.001925124
C        0.504719536   0.257476319  -0.002232658
C        0.585479628   0.169828605  -0.000632536
C        0.751267984   0.249973910   0.000747211
C        0.831861611   0.163723223   0.000351832
C        0.001089806   0.502179611   0.003066042
C        0.079383061   0.416496698   0.001845359
C        0.243705793   0.501425324  -0.000779273
C        0.323787005   0.421921529  -0.003762338
C        0.598134522   0.421921529  -0.003762338
C        0.757719532   0.501425324  -0.000779273
C        0.837113636   0.416496698   0.001845359
C        0.006791045   0.755841303   0.001678142
C        0.085080970   0.670161942   0.002970185
C        0.249050259   0.755841303   0.001678142
C        0.328428387   0.670895527  -0.000888113
C        0.488006186   0.750441332  -0.003945823
Cl       0.543127543   0.586255088  -0.007479206
C        0.762435145   0.750441332  -0.003945823
C        0.842467139   0.670895527  -0.000888113
C        0.087473484   0.922357354   0.000550847
C        0.334883870   0.922357354   0.000550847
C        0.581438041   0.914883397  -0.002285282
C        0.833445356   0.914883397  -0.002285282
K_POINTS automatic 
  16 16 1   0 0 0 

