 &CONTROL
                 calculation = 'bands' ,
                      outdir = './tmp/' ,
                  pseudo_dir = '/home/deleted/pseudo_psl' ,
                      prefix = 'GF_ip' ,
                   verbosity = 'high' ,
               etot_conv_thr = 1.0D-5 ,
               forc_conv_thr = 4.0D-4 ,
                       nstep = 1000 ,
                    dipfield = .true. ,
 /
 &SYSTEM
                       ibrav = 4,
                           A = 9.88 ,
                           C = 15 ,
                         nat = 34,
                        ntyp = 4,
                     ecutwfc = 40.424239707 ,
                     ecutrho = 404.24239707 ,
                 occupations = 'tetrahedra' ,
                     degauss = 0.01 ,
				   input_dft = 'vdW-DF' ,
    nspin = 2 ,
    starting_magnetization(1) = 0.5,
    starting_magnetization(2) = 0.5,
    starting_magnetization(3) = 0.5,
 /
 &ELECTRONS
            electron_maxstep = 50001,
                    conv_thr = 1.0D-6 ,
                 mixing_mode = 'local-TF' ,
                 mixing_beta = 0.5 ,
 /
ATOMIC_SPECIES
    C   12.01100  C.revpbe-n-kjpaw_psl.0.1.UPF 
    F   18.99800  F.revpbe-n-kjpaw_psl.0.1.UPF 
    O   15.99940  O.revpbe-n-kjpaw_psl.0.1.UPF 
    H   1.008000  H.revpbe-kjpaw_psl.0.1.UPF
ATOMIC_POSITIONS (crystal)
C       -0.026528756  -0.008043949   0.014056315
C        0.222407311  -0.012029709   0.006351111
C        0.473880955  -0.006771243  -0.002327744
C        0.726504006  -0.005333934   0.000133454
C       -0.023311946   0.243306987   0.003228875
C        0.058470867   0.158619552   0.005463290
C        0.226473837   0.240460493   0.005255725
C        0.304688624   0.152058130   0.004269194
C        0.470323197   0.240500967   0.002777604
C        0.556759642   0.160069241   0.000869408
C        0.723566065   0.244892416  -0.000525731
C        0.809033315   0.161308188  -0.000577811
C       -0.025649535   0.491671688   0.008247943
C        0.062838893   0.410108261   0.002850335
C        0.236961152   0.491532840  -0.002453767
C        0.316899019   0.402805879   0.003602671
C        0.543660830   0.405405874   0.008166364
C        0.709068358   0.491187479   0.016989035
C        0.802619312   0.410276806   0.006861471
C       -0.021925796   0.741781025   0.025124437
C        0.059217339   0.658594682   0.012871565
C        0.225614353   0.740559071   0.001752231
C        0.311324291   0.659627327  -0.011452897
C        0.470450892   0.752459595  -0.030313956
F        0.544918358   0.680928428  -0.067866585
C        0.732740875   0.757639450   0.062883974
C        0.810515607   0.654958441   0.058998618
C        0.056135403   0.904653256   0.016825194
C        0.307366190   0.906589038   0.001365460
C        0.558795821   0.912602977  -0.011793139
C        0.808787662   0.913370304   0.018492327
O        0.620251760   0.714663188   0.113564504
O        0.828366771   0.623421057   0.153389778
H        0.729611212   0.600015253   0.181742670
K_POINTS automatic 
  20 20 1   0 0 0 

