 &CONTROL
                 calculation = 'scf' ,
                      outdir = './tmp_subs/' ,
                  pseudo_dir = '/home/deleted/pseudo_psl' ,
                      prefix = 'GCl_op_subs' ,
                   verbosity = 'high' ,
               etot_conv_thr = 1.0D-5 ,
               forc_conv_thr = 4.0D-4 ,
                       nstep = 1000 ,
                    dipfield = .true. ,
 /
 &SYSTEM
                       ibrav = 4,
                           A = 9.88 ,
                           C = 15 ,
                         nat = 31,
                        ntyp = 2,
                     ecutwfc = 40.424239707 ,
                     ecutrho = 404.24239707 ,
                 occupations = 'smearing' ,
                     degauss = 0.01 ,
				   input_dft = 'vdW-DF' ,
 /
 &ELECTRONS
            electron_maxstep = 50001,
                    conv_thr = 1.0D-6 ,
                 mixing_mode = 'local-TF' ,
                 mixing_beta = 0.5 ,
 /
ATOMIC_SPECIES
    C   12.01100  C.revpbe-n-kjpaw_psl.0.1.UPF 
   Cl   35.45200  Cl.revpbe-n-kjpaw_psl.0.3.0.UPF 
ATOMIC_POSITIONS crystal 
C        0.005353421  -0.002809587  -0.008067980
C        0.250997326  -0.009154475  -0.016077941
C        0.502472200  -0.002928374  -0.007837976
C        0.756151957   0.001890203   0.009982733
C        0.006474592   0.247535581  -0.006985750
C        0.088608849   0.163553575  -0.011294337
C        0.255947053   0.243567859  -0.015384835
C        0.332419155   0.153894596  -0.017521054
C        0.498386254   0.243317731  -0.015278325
C        0.585651940   0.163337950  -0.011165281
C        0.751862148   0.247408011  -0.006936496
C        0.838152200   0.165457236  -0.001685715
C        0.002926064   0.495008958  -0.008341710
C        0.092413762   0.413030420  -0.007773846
C        0.266191285   0.494201800  -0.005901426
C        0.347811988   0.405509464  -0.011360149
C        0.568590217   0.405457887  -0.011121769
C        0.738448707   0.493558372  -0.005311845
C        0.831249618   0.412853398  -0.007484073
C        0.000565298   0.743023700  -0.010743688
C        0.085511049   0.659845830  -0.012794487
C        0.253413129   0.742769596  -0.010866084
C        0.339709502   0.661832994   0.000686183
C        0.497470989   0.758153857   0.022213981
Cl       0.594676938   0.681733506   0.086721629
C        0.769808442   0.757226203   0.019707853
C        0.832818931   0.661915178   0.001080698
C        0.083888585   0.909115692  -0.012465520
C        0.336121647   0.909159591  -0.012261825
C        0.588251829   0.919156805   0.009311534
C        0.841403883   0.918746589   0.008640419
K_POINTS automatic 
  16 16 1   0 0 0 

