 &CONTROL
                 calculation = 'scf' ,
                      outdir = './tmp/' ,
                  pseudo_dir = '/home/deleted/pseudo_psl' ,
                      prefix = 'GCl_op' ,
                   verbosity = 'high' ,
               etot_conv_thr = 1.0D-5 ,
               forc_conv_thr = 4.0D-4 ,
                       nstep = 1000 ,
                    dipfield = .true. ,
 /
 &SYSTEM
                       ibrav = 4,
                           A = 9.88 ,
                           C = 15 ,
                         nat = 34,
                        ntyp = 4,
                     ecutwfc = 40.424239707 ,
                     ecutrho = 404.24239707 ,
                 occupations = 'smearing' ,
                     degauss = 0.01 ,
				   input_dft = 'vdW-DF' ,
 /
 &ELECTRONS
            electron_maxstep = 50001,
                    conv_thr = 1.0D-6 ,
                 mixing_mode = 'local-TF' ,
                 mixing_beta = 0.5 ,
 /
ATOMIC_SPECIES
    C   12.01100  C.revpbe-n-kjpaw_psl.0.1.UPF 
   Cl   35.45200  Cl.revpbe-n-kjpaw_psl.0.3.0.UPF 
    O   15.99940  O.revpbe-n-kjpaw_psl.0.1.UPF 
    H   1.008000  H.revpbe-kjpaw_psl.0.1.UPF
ATOMIC_POSITIONS crystal 
C       -0.000355566  -0.008543545  -0.010453712
C        0.245052033  -0.015166574  -0.018671393
C        0.496678481  -0.008964195  -0.011309768
C        0.750530661  -0.003575531   0.007637688
C        0.000417868   0.241529914  -0.009759265
C        0.082783053   0.157663836  -0.014098374
C        0.249993285   0.237565050  -0.018169506
C        0.326452844   0.147804531  -0.020298466
C        0.492499449   0.237315271  -0.017970376
C        0.579794139   0.157433158  -0.014230167
C        0.745954166   0.241487303  -0.009886161
C        0.832379279   0.159683525  -0.004863034
C       -0.003173590   0.488987898  -0.010329580
C        0.086486068   0.407026510  -0.010049881
C        0.260142179   0.488016993  -0.007954011
C        0.342178609   0.399450554  -0.013825912
C        0.562153136   0.399435637  -0.013314018
C        0.732196818   0.487658469  -0.007087327
C        0.825068411   0.406848011  -0.009752451
C       -0.005414067   0.737073045  -0.012531390
C        0.079357380   0.653787276  -0.014604644
C        0.247159736   0.736624282  -0.012860854
C        0.333394188   0.655812727  -0.001171680
C        0.491830100   0.752479982   0.018328800
Cl       0.588722602   0.674166180   0.081520843
C        0.765564281   0.752495288   0.019362569
C        0.827047830   0.656005877  -0.000200353
C        0.077966207   0.903168246  -0.014654533
C        0.330374766   0.903117043  -0.014919114
C        0.582680677   0.913365061   0.006302086
C        0.835921194   0.913525835   0.007023606
O        0.506204493   0.855763023   0.209345654
O        0.657241985   0.980669553   0.183076780
H        0.447200640   0.909948937   0.219188572

K_POINTS automatic 
  16 16 1   0 0 0 

