 &CONTROL
                 calculation = 'scf' ,
                      outdir = './tmp/' ,
                  pseudo_dir = '/home/deleted/pseudo_psl' ,
                      prefix = 'GF_op' ,
                   verbosity = 'high' ,
               etot_conv_thr = 1.0D-5 ,
               forc_conv_thr = 4.0D-4 ,
                       nstep = 1000 ,
                    dipfield = .true. ,
 /
 &SYSTEM
                       ibrav = 4,
                           A = 9.88 ,
                           C = 15 ,
                         nat = 33,
                        ntyp = 3,
                     ecutwfc = 40.424239707 ,
                     ecutrho = 404.24239707 ,
                 occupations = 'smearing' ,
                     degauss = 0.01 ,
				   input_dft = 'vdW-DF' ,
    nspin = 2 ,
    starting_magnetization(1) = 0.5,
    starting_magnetization(2) = 0.5,
    starting_magnetization(3) = 0.5,
 /
 &ELECTRONS
            electron_maxstep = 50001,
                    conv_thr = 1.0D-6 ,
                 mixing_mode = 'local-TF' ,
                 mixing_beta = 0.5 ,
 /
ATOMIC_SPECIES
    C   12.01100  C.revpbe-n-kjpaw_psl.0.1.UPF 
    F   18.99800  F.revpbe-n-kjpaw_psl.0.1.UPF 
    O   15.99940  O.revpbe-n-kjpaw_psl.0.1.UPF 
ATOMIC_POSITIONS (crystal)
C        0.002303011   0.001043376  -0.001310706
C        0.246154616  -0.007263066  -0.004061450
C        0.498265792   0.001015597  -0.001935346
C        0.753181049   0.006890890   0.004745920
C        0.003416523   0.251809095   0.000111656
C        0.085426168   0.167302176  -0.001800022
C        0.252243454   0.245690591  -0.003132927
C        0.327544416   0.155533715  -0.003966693
C        0.492980329   0.245666572  -0.002944648
C        0.581403678   0.167258798  -0.001787382
C        0.747922755   0.251783129   0.000118584
C        0.835269778   0.171004898   0.001889068
C       -0.001124858   0.498208438  -0.000712581
C        0.089965293   0.417044569  -0.000368896
C        0.264398275   0.496278094  -0.000469621
C        0.347362645   0.407805454  -0.001858055
C        0.559906906   0.407792396  -0.001538549
C        0.731387884   0.496259100   0.000062171
C        0.826638016   0.417025899  -0.000217341
C       -0.004179683   0.745665814  -0.002211224
C        0.081389332   0.663223622  -0.002690482
C        0.249408680   0.745662891  -0.002863193
C        0.337681399   0.664050749  -0.000009578
C        0.496847543   0.763703567   0.003118902
F        0.590578178   0.681597403   0.025561689
C        0.766185232   0.763629594   0.005406730
C        0.825926173   0.664074595   0.001238615
C        0.079479520   0.911791744  -0.002928745
C        0.331868901   0.911778775  -0.003348180
C        0.586865945   0.923427010   0.002781358
C        0.836130993   0.923493548   0.003866560
O        0.543507133   0.840459498   0.221027759
O        0.462160509   0.693741042   0.214041719
K_POINTS automatic 
  16 16 1   0 0 0 

