 &CONTROL
                 calculation = 'scf' ,
                      outdir = './tmp_subs/' ,
                  pseudo_dir = '/home/deleted/pseudo_psl' ,
                      prefix = 'GI_op-subs' ,
                   verbosity = 'high' ,
               etot_conv_thr = 1.0D-5 ,
               forc_conv_thr = 4.0D-4 ,
                       nstep = 1000 ,
                    dipfield = .true. ,
 /
 &SYSTEM
                       ibrav = 4,
                           A = 9.88 ,
                           C = 15 ,
                         nat = 31,
                        ntyp = 2,
                     ecutwfc = 40.424239707 ,
                     ecutrho = 404.24239707 ,
                 occupations = 'smearing' ,
                     degauss = 0.01 ,
				   input_dft = 'vdW-DF' ,
    nspin = 2 ,
    starting_magnetization(1) = 0.5,
    starting_magnetization(2) = 0.5,
 /
 &ELECTRONS
            electron_maxstep = 50001,
                    conv_thr = 1.0D-6 ,
                 mixing_mode = 'local-TF' ,
                 mixing_beta = 0.5 ,
 /
ATOMIC_SPECIES
    C   12.01100  C.revpbe-n-kjpaw_psl.0.1.UPF 
    I  126.90400  I.revpbe-n-kjpaw_psl.0.2.UPF 
ATOMIC_POSITIONS (crystal)
C       -0.001643790  -0.000558901  -0.003305187
C        0.244611295  -0.010777412  -0.003245770
C        0.501084889  -0.000558901  -0.003305187
C        0.757387195   0.014774389  -0.003408639
C        0.007433051   0.256091031  -0.003184831
C        0.084731615   0.166722146  -0.003114423
C        0.251702136   0.243458523  -0.003115681
C        0.325682207   0.151364416  -0.003049027
C        0.491756387   0.243458523  -0.003115681
C        0.581990531   0.166722146  -0.003114423
C        0.748657980   0.256091031  -0.003184831
C        0.838462539   0.176925080  -0.003161177
C        0.000775620   0.501551242  -0.003607146
C        0.095886165   0.420837056  -0.003469541
C        0.273086385   0.498586055  -0.003712057
C        0.351432929   0.405455957  -0.003422453
C        0.554023028   0.405455957  -0.003422453
C        0.725499670   0.498586055  -0.003712057
C        0.824950889   0.420837056  -0.003469541
C       -0.012864681   0.745206811  -0.003757842
C        0.082236401   0.664472801  -0.003759229
C        0.258071492   0.745206811  -0.003757842
C        0.357379842   0.667388351  -0.003957205
C        0.528928500   0.760663423  -0.003792500
I        0.596297212   0.692594423   0.224788706
C        0.731734923   0.760663423  -0.003792500
C        0.810008508   0.667388351  -0.003957205
C        0.075603932   0.910005029  -0.003432990
C        0.334401096   0.910005029  -0.003432990
C        0.591359234   0.922769746  -0.003571005
C        0.831410513   0.922769746  -0.003571005
K_POINTS automatic 
  16 16 1   0 0 0 

