 &CONTROL
                 calculation = 'scf' ,
                      outdir = './tmp_subs/' ,
                  pseudo_dir = '/home/deleted/pseudo_psl' ,
                      prefix = 'GBr_ip_subs' ,
                   verbosity = 'high' ,
               etot_conv_thr = 1.0D-5 ,
               forc_conv_thr = 4.0D-4 ,
                       nstep = 1000 ,
                    dipfield = .true. ,
 /
 &SYSTEM
                       ibrav = 4,
                           A = 9.88 ,
                           C = 15 ,
                         nat = 31,
                        ntyp = 2,
                     ecutwfc = 40.424239707 ,
                     ecutrho = 404.24239707 ,
                 occupations = 'smearing' ,
                     degauss = 0.01 ,
				   input_dft = 'vdW-DF' ,
 /
 &ELECTRONS
            electron_maxstep = 50001,
                    conv_thr = 1.0D-6 ,
                 mixing_mode = 'local-TF' ,
                 mixing_beta = 0.5 ,
 /
ATOMIC_SPECIES
    C   12.01100  C.revpbe-n-kjpaw_psl.0.1.UPF 
   Br   79.90350  Br.revpbe-n-kjpaw_psl.0.2.UPF 
ATOMIC_POSITIONS crystal 
C        0.002243631   0.002904345  -0.002238183
C        0.254770447   0.009540893  -0.004560655
C        0.500660715   0.002904345  -0.002238183
C        0.748808344  -0.002383312   0.003414539
C       -0.001519655   0.249893194  -0.007076523
C        0.084241928   0.170108687  -0.001913267
C        0.252093755   0.257224275   0.005578663
C        0.337684322   0.175368645   0.004634409
C        0.505130521   0.257224275   0.005578663
C        0.585866757   0.170108687  -0.001913267
C        0.751412849   0.249893194  -0.007076523
C        0.831690541   0.163381081  -0.005027031
C        0.001214172   0.502428346  -0.017845288
C        0.078978328   0.416466453  -0.012603747
C        0.242155708   0.501534984  -0.002560535
C        0.318993472   0.420826679   0.012042835
C        0.601833205   0.420826679   0.012042835
C        0.759379276   0.501534984  -0.002560535
C        0.837488124   0.416466453  -0.012603747
C        0.007560017   0.756529942  -0.012695758
C        0.085271384   0.670542769  -0.017722183
C        0.248969926   0.756529942  -0.012695758
C        0.327194744   0.671465117  -0.003169182
C        0.484958045   0.752342633   0.010025703
Br       0.543801784   0.587603569   0.038140243
C        0.767384588   0.752342633   0.010025703
C        0.844270373   0.671465117  -0.003169182
C        0.088028160   0.923073543  -0.007045382
C        0.335045382   0.923073543  -0.007045382
C        0.581478883   0.915899717   0.004256618
C        0.834420833   0.915899717   0.004256618
K_POINTS automatic 
  16 16 1   0 0 0 

