 &CONTROL
                 calculation = 'bands' ,
                      outdir = './tmp/' ,
                  pseudo_dir = '/home/deleted/pseudo_psl' ,
                      prefix = 'GI_ip' ,
                   verbosity = 'high' ,
               etot_conv_thr = 1.0D-5 ,
               forc_conv_thr = 4.0D-4 ,
                       nstep = 1000 ,
                    dipfield = .true. ,
 /
 &SYSTEM
                       ibrav = 4,
                           A = 9.88 ,
                           C = 15 ,
                         nat = 34,
                        ntyp = 4,
                     ecutwfc = 40.424239707 ,
                     ecutrho = 404.24239707 ,
                 occupations = 'tetrahedra' ,
                     degauss = 0.01 ,
				   input_dft = 'vdW-DF' ,
    nspin = 2 ,
    starting_magnetization(1) = 0.5,
    starting_magnetization(2) = 0.5,
    starting_magnetization(3) = 0.5,
 /
 &ELECTRONS
            electron_maxstep = 50001,
                    conv_thr = 1.0D-6 ,
                 mixing_mode = 'local-TF' ,
                 mixing_beta = 0.5 ,
 /
ATOMIC_SPECIES
    C   12.01100  C.revpbe-n-kjpaw_psl.0.1.UPF 
    I  126.90400  I.revpbe-n-kjpaw_psl.0.2.UPF 
    O   15.99940  O.revpbe-n-kjpaw_psl.0.1.UPF 
    H   1.008000  H.revpbe-kjpaw_psl.0.1.UPF
ATOMIC_POSITIONS (crystal)
C        0.004254548  -0.000056773   0.005005742
C        0.257024051   0.007359971   0.008267019
C        0.502361347  -0.000081693   0.004302899
C        0.750566014  -0.005670386  -0.004502372
C        0.000043257   0.246437602   0.011600332
C        0.085899940   0.166868419   0.004672465
C        0.252638867   0.253625356  -0.006628536
C        0.339616025   0.172525505  -0.004897315
C        0.507689288   0.253633172  -0.006549585
C        0.587689500   0.166849423   0.004494035
C        0.753154544   0.246372162   0.011698415
C        0.833132590   0.159500379   0.008528607
C        0.003179223   0.499355106   0.025986311
C        0.080710900   0.413174274   0.018163738
C        0.242195356   0.498176357   0.002170768
C        0.317416919   0.416302249  -0.016235195
C        0.605679404   0.416559198  -0.015456678
C        0.762698495   0.498164883   0.003421086
C        0.839288942   0.413083476   0.018793314
C        0.009585433   0.753659952   0.018724628
C        0.087201489   0.667396696   0.025814773
C        0.250882984   0.753630475   0.017835429
C        0.327423487   0.668648759   0.002082433
C        0.484572373   0.750459446  -0.016122758
I        0.545336036   0.583317452  -0.058316758
C        0.772185940   0.750109009  -0.014515753
C        0.847932876   0.668605140   0.003627586
C        0.090224215   0.920437362   0.011797306
C        0.336949782   0.920373486   0.011146398
C        0.582413633   0.913140205  -0.006580029
C        0.837406170   0.913149091  -0.005780003
O        0.545940977   0.597865202   0.128652323
O        0.469982937   0.449513651   0.174577341
H        0.552691512   0.459969508   0.214884551
K_POINTS automatic 
  20 20 1   0 0 0 

