&CONTROL
	calculation = 'bands' ,
	outdir = './tmp/' ,
	pseudo_dir = '/home/deleted/pseudo_psl' ,
	prefix = 'GBr_op' ,
	verbosity = 'high' ,
	etot_conv_thr = 1.0D-5 ,
	forc_conv_thr = 4.0D-4 ,
	nstep = 1000 ,
	dipfield = .true. ,
/
&SYSTEM
	ibrav = 4,
	A = 9.88 ,
	C = 15 ,
	nat = 31,
	ntyp = 2,
	ecutwfc = 40.424239707 ,
	ecutrho = 404.24239707 ,
	occupations = 'tetrahedra' ,
	degauss = 0.01 ,
	input_dft = 'vdW-DF' ,
    nspin = 2 ,
    starting_magnetization(1) = 0.5,
    starting_magnetization(2) = 0.5,
/
&ELECTRONS
	electron_maxstep = 50001,
	conv_thr = 1.0D-6 ,
	mixing_mode = 'local-TF' ,
	mixing_beta = 0.5 ,
/
ATOMIC_SPECIES
	C	12.01100	C.revpbe-n-kjpaw_psl.0.1.UPF 
	Br	79.90350	Br.revpbe-n-kjpaw_psl.0.2.UPF  
ATOMIC_POSITIONS (crystal)
C       -0.001930468  -0.001155131  -0.000735966
C        0.244112556  -0.011774888  -0.000303066
C        0.500775337  -0.001155131  -0.000735966
C        0.756729485   0.013458970  -0.001669901
C        0.006750448   0.255309339  -0.001988552
C        0.084524294   0.166043200  -0.001266370
C        0.251563431   0.242934564  -0.001383312
C        0.325517797   0.151035595  -0.000685649
C        0.491371134   0.242934564  -0.001383312
C        0.581518905   0.166043200  -0.001266370
C        0.748558891   0.255309339  -0.001988552
C        0.838293734   0.176587470  -0.001881464
C        0.000205364   0.500410727  -0.002685904
C        0.095305634   0.420204247  -0.002698106
C        0.273335955   0.498376741  -0.003062674
C        0.352309397   0.405363845  -0.002440435
C        0.553054447   0.405363845  -0.002440435
C        0.725040786   0.498376741  -0.003062674
C        0.824898612   0.420204247  -0.002698106
C       -0.013084398   0.744379686  -0.001740039
C        0.082128838   0.664257676  -0.002209185
C        0.257464084   0.744379686  -0.001740039
C        0.356471928   0.666352008  -0.002512551
C        0.528696268   0.759505438  -0.000068596
Br       0.597287962   0.694575924   0.181700961
C        0.730809170   0.759505438  -0.000068596
C        0.809880079   0.666352008  -0.002512551
C        0.075585758   0.909449139  -0.000571531
C        0.333863380   0.909449139  -0.000571531
C        0.591127637   0.922294522  -0.000998099
C        0.831166884   0.922294522  -0.000998099
K_POINTS automatic 
  20 20 1   0 0 0 
