 &CONTROL
                 calculation = 'nscf' ,
                      outdir = './tmp/' ,
                  pseudo_dir = '/home/deleted/pseudo_psl' ,
                      prefix = 'GI_op' ,
                   verbosity = 'high' ,
               etot_conv_thr = 1.0D-5 ,
               forc_conv_thr = 4.0D-4 ,
                       nstep = 1000 ,
                    dipfield = .true. ,
 /
 &SYSTEM
                       ibrav = 4,
                           A = 9.88 ,
                           C = 15 ,
                         nat = 33,
                        ntyp = 3,
                     ecutwfc = 40.424239707 ,
                     ecutrho = 404.24239707 ,
                 occupations = 'tetrahedra' ,
                     degauss = 0.01 ,
				   input_dft = 'vdW-DF' ,
 /
 &ELECTRONS
            electron_maxstep = 50001,
                    conv_thr = 1.0D-6 ,
                 mixing_mode = 'local-TF' ,
                 mixing_beta = 0.5 ,
 /
ATOMIC_SPECIES
    C   12.01100  C.revpbe-n-kjpaw_psl.0.1.UPF 
    I  126.90400  I.revpbe-n-kjpaw_psl.0.2.UPF 
    O   15.99940  O.revpbe-n-kjpaw_psl.0.1.UPF 
ATOMIC_POSITIONS crystal 
C       -0.001781331   0.000112192  -0.005121206
C        0.244428783  -0.010275534  -0.004375292
C        0.501014007   0.000042699  -0.004305198
C        0.757258668   0.015338532  -0.004930658
C        0.007299151   0.256785886  -0.004991455
C        0.084598255   0.167307046  -0.004996215
C        0.251538824   0.243999619  -0.004999367
C        0.325568843   0.152041400  -0.004414209
C        0.491604714   0.244026047  -0.004383900
C        0.581845553   0.167284277  -0.004128472
C        0.748618475   0.256764956  -0.004391164
C        0.838433691   0.177677765  -0.004545206
C        0.000662668   0.502090206  -0.005405792
C        0.095881010   0.421575614  -0.005531995
C        0.273277887   0.499266532  -0.006206693
C        0.351350499   0.406103097  -0.005612537
C        0.553846413   0.406151301  -0.005061338
C        0.725152880   0.499357771  -0.005471413
C        0.824946315   0.421536496  -0.005053160
C       -0.012945102   0.745874978  -0.005428448
C        0.082270528   0.665337971  -0.005421829
C        0.257949177   0.745843947  -0.005277036
C        0.357775600   0.668017743  -0.005909464
C        0.529109189   0.761235710  -0.005714608
I        0.684737979   0.732703956   0.253949853
C        0.731492973   0.761337813  -0.006130816
C        0.809587044   0.668151498  -0.005980979
C        0.075546943   0.910649461  -0.004927322
C        0.334221900   0.910602450  -0.004468457
C        0.591265330   0.923327700  -0.004956084
C        0.831299775   0.923409803  -0.005610978
O        0.327311435   0.522418802   0.198414783
O        0.411498585   0.567235604   0.268053322
K_POINTS automatic 
  20 20 1   0 0 0 

