 &CONTROL
                 calculation = 'scf' ,
                      outdir = './tmp/' ,
                  pseudo_dir = '/home/deleted/pseudo_psl' ,
                      prefix = 'GCl_ip' ,
                   verbosity = 'high' ,
               etot_conv_thr = 1.0D-5 ,
               forc_conv_thr = 4.0D-4 ,
                       nstep = 1000 ,
                    dipfield = .true. ,
 /
 &SYSTEM
                       ibrav = 4,
                           A = 9.88 ,
                           C = 15 ,
                         nat = 34,
                        ntyp = 4,
                     ecutwfc = 40.424239707 ,
                     ecutrho = 404.24239707 ,
                 occupations = 'smearing' ,
                     degauss = 0.01 ,
				   input_dft = 'vdW-DF' ,
    nspin = 2 ,
    starting_magnetization(1) = 0.5,
    starting_magnetization(2) = 0.5,
    starting_magnetization(3) = 0.5,
 /
 &ELECTRONS
            electron_maxstep = 50001,
                    conv_thr = 1.0D-6 ,
                 mixing_mode = 'local-TF' ,
                 mixing_beta = 0.5 ,
 /
ATOMIC_SPECIES
    C   12.01100  C.revpbe-n-kjpaw_psl.0.1.UPF 
   Cl   35.45200  Cl.revpbe-n-kjpaw_psl.0.3.0.UPF 
    O   15.99940  O.revpbe-n-kjpaw_psl.0.1.UPF 
    H   1.008000  H.revpbe-kjpaw_psl.0.1.UPF
ATOMIC_POSITIONS (crystal)
C        0.003187388   0.008172528   0.017274127
C        0.252941935   0.006592522   0.007112524
C        0.503203778   0.008297677   0.020999784
C        0.753168533   0.011327874   0.027732732
C        0.003587622   0.259406956   0.012944706
C        0.085108766   0.173990880   0.010803197
C        0.248458459   0.253366159  -0.008305150
C        0.334270488   0.170681811  -0.008860582
C        0.501999618   0.252443074  -0.009718728
C        0.586325768   0.173504342   0.009979937
C        0.753012782   0.259309103   0.012882469
C        0.836953004   0.177107364   0.018147238
C        0.003075933   0.509608701   0.013272572
C        0.086309104   0.425963766   0.010635232
C        0.255558814   0.511144965   0.003589412
C        0.318018302   0.414970279  -0.020702826
C        0.594461159   0.413896949  -0.024140118
C        0.751918374   0.509056240  -0.000257337
C        0.835814397   0.425983460   0.010688490
C        0.001070460   0.758453031   0.011909717
C        0.086189986   0.675451356   0.011328551
C        0.254145477   0.757188028   0.017293874
C        0.338318024   0.674506814   0.019812384
C        0.503156113   0.762470057   0.060150597
Cl       0.491215737   0.487040886  -0.087555916
C        0.754055619   0.763406646   0.027115553
C        0.832187988   0.676342512   0.011437542
C        0.085291582   0.924286791   0.012625605
C        0.336067102   0.924556066   0.017506470
C        0.589298623   0.930658226   0.033535799
C        0.837538344   0.927345067   0.027146011
O        0.595514743   0.684272060   0.041110689
O        0.476357531   0.745916319   0.155740538
H        0.571871854   0.824927652   0.184990606
K_POINTS automatic 
  16 16 1   0 0 0 

