 &CONTROL
                 calculation = 'nscf' ,
                      outdir = './tmp/' ,
                  pseudo_dir = '/home/deleted/pseudo_psl' ,
                      prefix = 'GCl_op' ,
                   verbosity = 'high' ,
               etot_conv_thr = 1.0D-5 ,
               forc_conv_thr = 4.0D-4 ,
                       nstep = 1000 ,
                    dipfield = .true. ,
 /
 &SYSTEM
                       ibrav = 4,
                           A = 9.88 ,
                           C = 15 ,
                         nat = 34,
                        ntyp = 4,
                     ecutwfc = 40.424239707 ,
                     ecutrho = 404.24239707 ,
                 occupations = 'tetrahedra' ,
                     degauss = 0.01 ,
				   input_dft = 'vdW-DF' ,
 /
 &ELECTRONS
            electron_maxstep = 50001,
                    conv_thr = 1.0D-6 ,
                 mixing_mode = 'local-TF' ,
                 mixing_beta = 0.5 ,
 /
ATOMIC_SPECIES
    C   12.01100  C.revpbe-n-kjpaw_psl.0.1.UPF 
   Cl   35.45200  Cl.revpbe-n-kjpaw_psl.0.3.0.UPF 
    O   15.99940  O.revpbe-n-kjpaw_psl.0.1.UPF 
    H   1.008000  H.revpbe-kjpaw_psl.0.1.UPF
ATOMIC_POSITIONS crystal 
C        0.028104956   0.003450386  -0.005275284
C        0.274170148  -0.006295375  -0.008803951
C        0.530458747   0.003750704  -0.011551284
C        0.786959614   0.015757643  -0.007450915
C        0.036310315   0.258808129  -0.010194703
C        0.114757232   0.170667149  -0.009043839
C        0.281750831   0.247981682  -0.010076303
C        0.356027282   0.156691146  -0.010023131
C        0.522655748   0.248904527  -0.011522864
C        0.612231785   0.171056805  -0.012061323
C        0.779340204   0.258691120  -0.013075684
C        0.868537511   0.179764304  -0.010960127
C        0.030519366   0.503969694  -0.011895125
C        0.124865774   0.424260405  -0.011049761
C        0.301315251   0.502524500  -0.010555615
C        0.381031040   0.410814494  -0.010795627
C        0.585796676   0.410910645  -0.011391673
C        0.759147778   0.503485203  -0.011502098
C        0.857264979   0.423689633  -0.013211777
C        0.018532094   0.748344401  -0.009494308
C        0.112323015   0.668568921  -0.009318956
C        0.286389117   0.749765884  -0.009830036
C        0.383032290   0.671410609  -0.010019460
C        0.550970758   0.764135939  -0.011374533
Cl       0.716590001   0.724885584   0.140955170
C        0.762765024   0.760542425   0.014876390
C        0.846495841   0.668901329  -0.007078915
C        0.106803485   0.914313253  -0.006376475
C        0.363755527   0.914342819  -0.010302119
C        0.619575103   0.925778086  -0.010704097
C        0.863009941   0.928597315  -0.000240225
O        0.094677374   0.659351101   0.164051543
O        0.097742654   0.793899783   0.193542786
H       -0.013642640   0.765091656   0.194602542
K_POINTS automatic 
  20 20 1   0 0 0 

