 &CONTROL
                 calculation = 'relax' ,
                      outdir = './tmp/' ,
                  pseudo_dir = '/home/deleted/pseudo_psl' ,
                      prefix = 'GBr_ip' ,
                   verbosity = 'high' ,
               etot_conv_thr = 1.0D-5 ,
               forc_conv_thr = 4.0D-4 ,
                       nstep = 1000 ,
                    dipfield = .true. ,
 /
 &SYSTEM
                       ibrav = 4,
                           A = 9.88 ,
                           C = 15 ,
                         nat = 34,
                        ntyp = 4,
                     ecutwfc = 40.424239707 ,
                     ecutrho = 404.24239707 ,
                 occupations = 'smearing' ,
                     degauss = 0.01 ,
				   input_dft = 'vdW-DF' ,
    nspin = 2 ,
    starting_magnetization(1) = 0.5,
    starting_magnetization(2) = 0.5,
    starting_magnetization(3) = 0.5,
	starting_magnetization(4) = 0.5,
 /
 &ELECTRONS
            electron_maxstep = 50001,
                    conv_thr = 1.0D-6 ,
                 mixing_mode = 'local-TF' ,
                 mixing_beta = 0.5 ,
 /
 &IONS
                ion_dynamics = 'bfgs' ,
 /
ATOMIC_SPECIES
    C   12.01100  C.revpbe-n-kjpaw_psl.0.1.UPF 
   Br   79.90350  Br.revpbe-n-kjpaw_psl.0.2.UPF 
    O   15.99940  O.revpbe-n-kjpaw_psl.0.1.UPF 
    H   1.008000  H.revpbe-kjpaw_psl.0.1.UPF
ATOMIC_POSITIONS (crystal)
C        0.002081533   0.002464337   0.000660418
C        0.254617370   0.009234740   0.004145599
C        0.500382805   0.002464337   0.000660418
C        0.748571957  -0.002856085  -0.006166086
C       -0.001794642   0.249388335   0.006275737
C        0.083937249   0.169582778   0.000665738
C        0.251538161   0.256569669  -0.007747226
C        0.337455264   0.174910529  -0.006166740
C        0.505031509   0.256569669  -0.007747226
C        0.585645528   0.169582778   0.000665738
C        0.751182977   0.249388335   0.006275737
C        0.831409693   0.162819386   0.004149994
C        0.000988367   0.501976736   0.017440850
C        0.078884594   0.416107329   0.011549750
C        0.241657458   0.501015887  -0.000959307
C        0.317893886   0.419644755  -0.016468744
C        0.601750867   0.419644755  -0.016468744
C        0.759358428   0.501015887  -0.000959307
C        0.837222735   0.416107329   0.011549750
C        0.007141693   0.755947718   0.011546348
C        0.085041188   0.670082377   0.017440164
C        0.248806026   0.755947718   0.011546348
C        0.326670651   0.671039157  -0.000958138
C        0.484281575   0.752400183  -0.016461945
Br       0.543008615   0.586017231  -0.042546721
C        0.768118607   0.752400183  -0.016461945
C        0.844368505   0.671039157  -0.000958138
C        0.087822521   0.922667161   0.006267863
C        0.334844639   0.922667161   0.006267863
C        0.580996527   0.915478031  -0.007748587
C        0.834481503   0.915478031  -0.007748587
O        0.542975052   0.585950105   0.177432605
O        0.542935794   0.585871588   0.261026520
H        0.678749537   0.51801507    0.219229563
K_POINTS automatic 
  4 4 1   0 0 0 

