 &CONTROL
                 calculation = 'scf' ,
                      outdir = './tmp/' ,
                  pseudo_dir = '/home/deleted/pseudo_psl' ,
                      prefix = 'GF_op' ,
                   verbosity = 'high' ,
               etot_conv_thr = 1.0D-5 ,
               forc_conv_thr = 4.0D-4 ,
                       nstep = 1000 ,
                    dipfield = .true. ,
 /
 &SYSTEM
                       ibrav = 4,
                           A = 9.88 ,
                           C = 15 ,
                         nat = 34,
                        ntyp = 4,
                     ecutwfc = 40.424239707 ,
                     ecutrho = 404.24239707 ,
                 occupations = 'smearing' ,
                     degauss = 0.01 ,
				   input_dft = 'vdW-DF' ,
 /
 &ELECTRONS
            electron_maxstep = 50001,
                    conv_thr = 1.0D-6 ,
                 mixing_mode = 'local-TF' ,
                 mixing_beta = 0.5 ,
 /
ATOMIC_SPECIES
    C   12.01100  C.revpbe-n-kjpaw_psl.0.1.UPF 
    F   18.99800  F.revpbe-n-kjpaw_psl.0.1.UPF 
    O   15.99940  O.revpbe-n-kjpaw_psl.0.1.UPF 
	H   1.00800   H.revpbe-kjpaw_psl.0.1.UPF
ATOMIC_POSITIONS crystal 
C        0.008754943   0.016424139  -0.001754135
C        0.257737820   0.013798188   0.005233796
C        0.507569310   0.017745827   0.010323114
C        0.755635657   0.017072373  -0.000228798
C        0.008993660   0.267359988  -0.001992616
C        0.091368200   0.184114852   0.001632204
C        0.259300850   0.267592136   0.003812940
C        0.340618676   0.180019889   0.007546297
C        0.503160460   0.263503451   0.012519600
C        0.589625069   0.184163017   0.006460820
C        0.756138850   0.267240555   0.002845713
C        0.839673756   0.184631945  -0.001405998
C        0.008193448   0.516732220  -0.002442479
C        0.094204432   0.433668586   0.000545519
C        0.265784013   0.516207878   0.009153353
C        0.347123643   0.429530907   0.002859686
C        0.582455937   0.432712461   0.029693960
C        0.753324862   0.518312778  -0.005464129
C        0.837713491   0.435569426  -0.002722709
C        0.008808978   0.766342783  -0.005410746
C        0.091359964   0.682288445   0.000021779
C        0.258112628   0.764084225   0.009802612
C        0.340305989   0.682307133   0.019782842
C        0.504007739   0.774544610   0.048447836
F        0.629436776   0.702933380  -0.072951054
C        0.772868883   0.776145729  -0.032855099
C        0.841893843   0.683780651  -0.015969279
C        0.090828286   0.932182857  -0.001658765
C        0.340746226   0.932390125   0.011020535
C        0.592786791   0.937457417   0.015239471
C        0.842474832   0.934795569  -0.011878541
O        0.564134317   0.725586356   0.103714913
O        0.580953366   0.465280254   0.120059643
H        0.581816769   0.565697994   0.125820799
K_POINTS automatic 
  16 16 1   0 0 0 