 &CONTROL
                 calculation = 'bands' ,
                      outdir = './tmp/' ,
                  pseudo_dir = '/home/deleted/pseudo_psl' ,
                      prefix = 'GI_ip' ,
                   verbosity = 'high' ,
               etot_conv_thr = 1.0D-5 ,
               forc_conv_thr = 4.0D-4 ,
                       nstep = 1000 ,
                    dipfield = .true. ,
 /
 &SYSTEM
                       ibrav = 4,
                           A = 9.88 ,
                           C = 15 ,
                         nat = 34,
                        ntyp = 4,
                     ecutwfc = 40.424239707 ,
                     ecutrho = 404.24239707 ,
                 occupations = 'tetrahedra' ,
                     degauss = 0.01 ,
				   input_dft = 'vdW-DF' ,
 /
 &ELECTRONS
            electron_maxstep = 50001,
                    conv_thr = 1.0D-6 ,
                 mixing_mode = 'local-TF' ,
                 mixing_beta = 0.5 ,
 /
ATOMIC_SPECIES
    C   12.01100  C.revpbe-n-kjpaw_psl.0.1.UPF 
    I  126.90400  I.revpbe-n-kjpaw_psl.0.2.UPF 
    O   15.99940  O.revpbe-n-kjpaw_psl.0.1.UPF 
    H   1.008000  H.revpbe-kjpaw_psl.0.1.UPF
ATOMIC_POSITIONS crystal 
C        0.016418695   0.027009882   0.006389392
C        0.269045082   0.034311203   0.009085198
C        0.514380329   0.026873299   0.004661464
C        0.762490974   0.021060790  -0.003467515
C        0.012028728   0.273271266   0.011530088
C        0.097873145   0.193680525   0.004987426
C        0.264310424   0.280341620  -0.006639223
C        0.351651296   0.199529337  -0.003943427
C        0.519851919   0.280325204  -0.004817926
C        0.599696574   0.193530684   0.005778968
C        0.765207941   0.273121087   0.012770841
C        0.845135422   0.186296163   0.009264190
C        0.015361391   0.526158028   0.025655640
C        0.092704107   0.440073965   0.016931898
C        0.253792043   0.524992602   0.000092142
C        0.328899721   0.442642240  -0.017450878
C        0.617546152   0.443209274  -0.012669487
C        0.774662708   0.524970713   0.005926043
C        0.851423048   0.439756567   0.019988175
C        0.021835865   0.780725366   0.020061129
C        0.099408398   0.694353901   0.025524623
C        0.262797875   0.780499980   0.016625899
C        0.339018233   0.695646900  -0.000043523
C        0.496573830   0.777923658  -0.017263271
I        0.558309663   0.610082546  -0.055100279
C        0.784285231   0.777200852  -0.011776302
C        0.859959991   0.695564408   0.006142128
C        0.102356133   0.947467741   0.013053780
C        0.348957356   0.947347356   0.011188589
C        0.594220406   0.940173546  -0.006517015
C        0.849709063   0.940165394  -0.003967756
O        0.555831878   0.627852381   0.118107560
O        0.475784318   0.481146436   0.167952597
H        0.563754604   0.479653387   0.196990115
K_POINTS crystal_b 
4
0.0000000000    0.0000000000    0.0000000000 17
0.0000000000    0.5000000000    0.0000000000 10
0.3333333333    0.3333333333    0.0000000000 20
0.0000000000    0.0000000000    0.0000000000 1

