 &CONTROL
                 calculation = 'bands' ,
                      outdir = './tmp/' ,
                  pseudo_dir = '/home/deleted/pseudo_psl' ,
                      prefix = 'GI_ip' ,
                   verbosity = 'high' ,
               etot_conv_thr = 1.0D-5 ,
               forc_conv_thr = 4.0D-4 ,
                       nstep = 1000 ,
                    dipfield = .true. ,
 /
 &SYSTEM
                       ibrav = 4,
                           A = 9.88 ,
                           C = 15 ,
                         nat = 33,
                        ntyp = 3,
                     ecutwfc = 40.424239707 ,
                     ecutrho = 404.24239707 ,
                 occupations = 'tetrahedra' ,
                     degauss = 0.01 ,
				   input_dft = 'vdW-DF' ,
    nspin = 2 ,
    starting_magnetization(1) = 0.5,
    starting_magnetization(2) = 0.5,
    starting_magnetization(3) = 0.5,
 /
 &ELECTRONS
            electron_maxstep = 50001,
                    conv_thr = 1.0D-6 ,
                 mixing_mode = 'local-TF' ,
                 mixing_beta = 0.5 ,
 /
ATOMIC_SPECIES
    C   12.01100  C.revpbe-n-kjpaw_psl.0.1.UPF 
    I  126.90400  I.revpbe-n-kjpaw_psl.0.2.UPF 
    O   15.99940  O.revpbe-n-kjpaw_psl.0.1.UPF 
ATOMIC_POSITIONS (crystal)
C        0.002365813   0.002888430   0.003929502
C        0.255008869   0.010017737   0.007585470
C        0.500522616   0.002888430   0.003929502
C        0.748889080  -0.002221839  -0.005538090
C       -0.001696691   0.249622109   0.011164827
C        0.084154586   0.170027038   0.003709891
C        0.250950106   0.256493816  -0.008101696
C        0.337598978   0.175197957  -0.006303782
C        0.505543711   0.256493816  -0.008101696
C        0.585872452   0.170027038   0.003709891
C        0.751318799   0.249622109   0.011164827
C        0.831474945   0.162949891   0.007908658
C        0.001185276   0.502370552   0.026903676
C        0.079052515   0.416382473   0.018722952
C        0.240569065   0.501171378   0.002209610
C        0.315481846   0.419407477  -0.018213191
C        0.603925629   0.419407477  -0.018213191
C        0.760602313   0.501171378   0.002209610
C        0.837329957   0.416382473   0.018722952
C        0.007404233   0.756432403   0.018787535
C        0.085196500   0.670393000   0.026787949
C        0.249028170   0.756432403   0.018787535
C        0.325867627   0.671574628   0.002735736
C        0.482890245   0.753291207  -0.016592096
I        0.543365371   0.586730744  -0.063389115
C        0.770400963   0.753291207  -0.016592096
C        0.845707000   0.671574628   0.002735736
C        0.088199703   0.923238662   0.011112276
C        0.335038959   0.923238662   0.011112276
C        0.580966029   0.916400449  -0.007105240
C        0.835434419   0.916400449  -0.007105240
O        0.530586409   0.561172817   0.163473042
O        0.463097836   0.426195672   0.197851983
K_POINTS automatic 
  20 20 1   0 0 0 

