 &CONTROL
                 calculation = 'scf' ,
                      outdir = './tmp/' ,
                  pseudo_dir = '/home/deleted/pseudo_psl' ,
                      prefix = 'B1_opH' ,
                    dipfield = .true. ,
                   verbosity = 'high',
                       nstep = 1000,
               forc_conv_thr = 4.0D-4,
               etot_conv_thr = 1.0D-5
 /
 &SYSTEM
                       ibrav = 4,
                           A = 9.88 ,
                           C = 15 ,
                         nat = 32, 
                        ntyp = 2,
                     ecutwfc = 40.424239707 ,
                     ecutrho = 404.24239707 ,
                 occupations = 'smearing' ,
                     degauss = 0.01 ,
				   input_dft = 'vdW-DF' ,
    nspin = 2 ,
    starting_magnetization(1) = 0.5,
	starting_magnetization(2) = 0.5,
 /
 &ELECTRONS
            electron_maxstep = 50001,
                    conv_thr = 1.0D-6 ,
                 mixing_mode = 'local-TF' ,
                 mixing_beta = 0.5 ,
 /
ATOMIC_SPECIES
    C   12.01100  C.revpbe-n-kjpaw_psl.0.1.UPF
    O   15.99940  O.revpbe-n-kjpaw_psl.0.1.UPF 
ATOMIC_POSITIONS crystal 
C       -0.001594195  -0.000348802  -0.006674049
C        0.244651724  -0.010696498  -0.006602976
C        0.501244607  -0.000347822  -0.006676175
C        0.757664603   0.015332037  -0.006621187
C        0.007758035   0.256500638  -0.006795354
C        0.084929608   0.167015261  -0.006674941
C        0.251851689   0.243590922  -0.006832874
C        0.325669718   0.151339909  -0.006625246
C        0.491738647   0.243590267  -0.006835170
C        0.582086807   0.167015823  -0.006678060
C        0.748739849   0.256499758  -0.006797280
C        0.838681074   0.177360380  -0.006602302
C        0.000978908   0.501958276  -0.007310128
C        0.096387429   0.421239643  -0.007225716
C        0.273692273   0.498883432  -0.007483032
C        0.352074969   0.405592465  -0.007281342
C        0.553517720   0.405593500  -0.007282796
C        0.725190345   0.498882790  -0.007484284
C        0.824852740   0.421240329  -0.007226947
C       -0.013051823   0.745430196  -0.007224616
C        0.082353413   0.664707037  -0.007309043
C        0.258482208   0.745431036  -0.007224485
C        0.358142001   0.667781904  -0.007481527
C        0.529816725   0.761075106  -0.007277631
O        0.604266336   0.583333931   0.205119163
O        0.479069948   0.583331949   0.205116597
C        0.731257897   0.761074548  -0.007277587
C        0.809640119   0.667782205  -0.007482028
C        0.075572462   0.910165442  -0.006794640
C        0.334592553   0.910164710  -0.006795607
C        0.591594854   0.923072786  -0.006829870
C        0.831480082   0.923073515  -0.006828865
K_POINTS automatic 
  16 16 1   0 0 0 

