 &CONTROL
                 calculation = 'scf' ,
                      outdir = './tmp/' ,
                  pseudo_dir = '/home/deleted/pseudo_psl' ,
                      prefix = 'PG_op' ,
                   verbosity = 'high' ,
               etot_conv_thr = 1.0D-5 ,
               forc_conv_thr = 4.0D-4 ,
                       nstep = 1000 ,
                    dipfield = .true. ,
 /
 &SYSTEM
                       ibrav = 4,
                           A = 9.88 ,
                           C = 15 ,
                         nat = 32,
                        ntyp = 1,
                     ecutwfc = 40.424239707 ,
                     ecutrho = 404.24239707 ,
                 occupations = 'tetrahedra' ,
                     degauss = 0.01 ,
				   input_dft = 'vdW-DF' ,
    nspin = 2 ,
    starting_magnetization(1) = 0.5,
 /
 &ELECTRONS
            electron_maxstep = 50001,
                    conv_thr = 1.0D-6 ,
                 mixing_mode = 'local-TF' ,
                 mixing_beta = 0.5 ,
 /
ATOMIC_SPECIES
    C   12.01100  C.revpbe-n-kjpaw_psl.0.1.UPF 
ATOMIC_POSITIONS (crystal)
C       -0.000000704   0.000000704   0.001040514
C        0.250000282   0.000000564   0.001045101
C        0.500001407   0.000000704   0.001040514
C        0.750000258   0.000000516   0.001046787
C       -0.000000516   0.249999742   0.001046787
C        0.083330246   0.166662213   0.001043040
C        0.249999265   0.249999578   0.001037934
C        0.333334775   0.166669550   0.001042047
C        0.500000314   0.249999578   0.001037934
C        0.583331967   0.166662213   0.001043040
C        0.750000258   0.249999742   0.001046787
C        0.833333333   0.166666667   0.001022194
C       -0.000000704   0.499998593   0.001040514
C        0.083330246   0.416668033   0.001043040
C        0.249999265   0.499999686   0.001037934
C        0.333335700   0.416667851   0.001048320
C        0.583332149   0.416667851   0.001048320
C        0.750000422   0.499999686   0.001037934
C        0.833337787   0.416668033   0.001043040
C       -0.000000564   0.749999718   0.001045101
C        0.083333785   0.666667572   0.001032536
C        0.250000282   0.749999718   0.001045101
C        0.333334775   0.666665225   0.001042047
C        0.500000314   0.750000735   0.001037934
C        0.750000422   0.750000735   0.001037934
C        0.833330450   0.666665225   0.001042047
C        0.083333785   0.916666215   0.001032536
C        0.333332428   0.916666215   0.001032536
C        0.583331967   0.916669754   0.001043040
C        0.833337787   0.916669754   0.001043040
C        0.583332149   0.666664300   0.001048320
C        0.500000000   0.500000000   0.001059383
K_POINTS automatic 
  20 20 1   0 0 0 

