 &CONTROL
                 calculation = 'scf' ,
                      outdir = './tmp/' ,
                  pseudo_dir = '/home/deleted/pseudo_psl' ,
                      prefix = 'GBr_op' ,
                   verbosity = 'high' ,
               etot_conv_thr = 1.0D-5 ,
               forc_conv_thr = 4.0D-4 ,
                       nstep = 1000 ,
                    dipfield = .true. ,
 /
 &SYSTEM
                       ibrav = 4,
                           A = 9.88 ,
                           C = 15 ,
                         nat = 34,
                        ntyp = 4,
                     ecutwfc = 40.424239707 ,
                     ecutrho = 404.24239707 ,
                 occupations = 'smearing' ,
                     degauss = 0.01 ,
				   input_dft = 'vdW-DF' ,
 /
 &ELECTRONS
            electron_maxstep = 50001,
                    conv_thr = 1.0D-6 ,
                 mixing_mode = 'local-TF' ,
                 mixing_beta = 0.5 ,
 /
ATOMIC_SPECIES
    C   12.01100  C.revpbe-n-kjpaw_psl.0.1.UPF 
   Br   79.90350  Br.revpbe-n-kjpaw_psl.0.2.UPF 
    O   15.99940  O.revpbe-n-kjpaw_psl.0.1.UPF 
    H   1.008000  H.revpbe-kjpaw_psl.0.1.UPF
ATOMIC_POSITIONS crystal 
C       -0.000834799   0.004473253  -0.002882312
C        0.247839759  -0.002190130  -0.000078715
C        0.500968918   0.004669004   0.003560938
C        0.753030762   0.014398548   0.000470957
C        0.004011690   0.259141700  -0.003658255
C        0.083561230   0.172220910  -0.003871995
C        0.250946991   0.252906922  -0.001824962
C        0.330357338   0.163321801   0.002904769
C        0.492176108   0.246957838   0.011590842
C        0.581827885   0.171491755   0.005608563
C        0.749282947   0.258758752   0.003659947
C        0.835532379   0.179414462  -0.000944200
C        0.000823302   0.506290561  -0.001997633
C        0.089799752   0.424497740  -0.002640468
C        0.263031017   0.504052529   0.000215746
C        0.341595664   0.414474599  -0.000782084
C        0.568646863   0.415133963   0.032862302
C        0.741267358   0.506397307   0.005419213
C        0.829434876   0.426325375   0.001389998
C       -0.006532925   0.752778697  -0.001346711
C        0.083308618   0.670940704  -0.001415565
C        0.255920325   0.750965954   0.001011896
C        0.345822014   0.670719931   0.004344304
C        0.520877826   0.761811339   0.022513810
Br       0.531232917   0.747654295   0.170205920
C        0.739722489   0.763234402   0.001218749
C        0.818661159   0.671862606   0.002054741
C        0.079211749   0.918083688  -0.002358692
C        0.334305004   0.918151535   0.002726188
C        0.590319822   0.927890730   0.006393875
C        0.831258385   0.924402342  -0.001073747
O        0.431645308   0.365273955   0.172969529
O        0.583070057   0.454774121   0.123641609
H        0.425185543   0.456942284   0.193280904
K_POINTS automatic 
  16 16 1   0 0 0 

