 &CONTROL
                 calculation = 'relax' ,
                      outdir = './tmp/' ,
                  pseudo_dir = '/home/deleted/pseudo_psl' ,
                      prefix = 'GBr_op' ,
                   verbosity = 'high' ,
               etot_conv_thr = 1.0D-5 ,
               forc_conv_thr = 4.0D-4 ,
                       nstep = 1000 ,
                    dipfield = .true. ,
 /
 &SYSTEM
                       ibrav = 4,
                           A = 9.88 ,
                           C = 15 ,
                         nat = 34,
                        ntyp = 4,
                     ecutwfc = 40.424239707 ,
                     ecutrho = 404.24239707 ,
                 occupations = 'smearing' ,
                     degauss = 0.01 ,
				   input_dft = 'vdW-DF' ,
 /
 &ELECTRONS
            electron_maxstep = 50001,
                    conv_thr = 1.0D-6 ,
                 mixing_mode = 'local-TF' ,
                 mixing_beta = 0.5 ,
 /
 &IONS
                ion_dynamics = 'bfgs' ,
 /
ATOMIC_SPECIES
    C   12.01100  C.revpbe-n-kjpaw_psl.0.1.UPF 
   Br   79.90350  Br.revpbe-n-kjpaw_psl.0.2.UPF 
    O   15.99940  O.revpbe-n-kjpaw_psl.0.1.UPF 
    H   1.008000  H.revpbe-kjpaw_psl.0.1.UPF
ATOMIC_POSITIONS crystal 
C       -0.001307070   0.002539282  -0.001399907
C        0.247200699  -0.004331107   0.001861712
C        0.500533811   0.003036076   0.002090536
C        0.752999379   0.013034163  -0.000990085
C        0.003885467   0.257484020  -0.004156021
C        0.083164430   0.170241440  -0.003315829
C        0.250408887   0.250822561  -0.001232790
C        0.329644852   0.161225139   0.004383381
C        0.491753768   0.245284336   0.012118334
C        0.581361672   0.169893280   0.004447379
C        0.748895288   0.257059909   0.002309830
C        0.835418774   0.177891879  -0.002328369
C        0.000600369   0.504453464  -0.001433158
C        0.089735274   0.422840769  -0.002694171
C        0.262974275   0.502314569   0.000151892
C        0.341076179   0.412484925  -0.001459222
C        0.568341955   0.413850661   0.032574685
C        0.740822634   0.504447209   0.005532130
C        0.829183338   0.424556338   0.001159331
C       -0.007182350   0.750746118   0.000524136
C        0.082974969   0.669046164   0.000200281
C        0.255684355   0.749105179   0.002320847
C        0.346252754   0.669115250   0.004912877
C        0.521455446   0.761092420   0.020959212
Br       0.536240595   0.757441242   0.173039614
C        0.738742606   0.761539617   0.001980581
C        0.817901219   0.669971722   0.003094234
C        0.078631635   0.915984754  -0.000055139
C        0.333938172   0.916172253   0.003313506
C        0.590077141   0.926386899   0.004254329
C        0.830807061   0.922699065  -0.000683932
O        0.429029292   0.381819970   0.170474138
O        0.582503976   0.457570041   0.122431584
H        0.433557481   0.480403862   0.188783535
K_POINTS automatic 
  4 4 1   0 0 0 

