 &CONTROL
                 calculation = 'scf' ,
                      outdir = './tmp_subs/' ,
                  pseudo_dir = '/home/deleted/pseudo_psl' ,
                      prefix = 'GF_ip-subs' ,
                   verbosity = 'high' ,
               etot_conv_thr = 1.0D-5 ,
               forc_conv_thr = 4.0D-4 ,
                       nstep = 1000 ,
                    dipfield = .true. ,
 /
 &SYSTEM
                       ibrav = 4,
                           A = 9.88 ,
                           C = 15 ,
                         nat = 31,
                        ntyp = 2,
                     ecutwfc = 40.424239707 ,
                     ecutrho = 404.24239707 ,
                 occupations = 'smearing' ,
                     degauss = 0.01 ,
				   input_dft = 'vdW-DF' ,
    nspin = 2 ,
    starting_magnetization(1) = 0.5,
    starting_magnetization(2) = 0.5,
 /
 &ELECTRONS
            electron_maxstep = 50001,
                    conv_thr = 1.0D-6 ,
                 mixing_mode = 'local-TF' ,
                 mixing_beta = 0.5 ,
 /
ATOMIC_SPECIES
    C   12.01100  C.revpbe-n-kjpaw_psl.0.1.UPF 
    F   18.99800  F.revpbe-n-kjpaw_psl.0.1.UPF 
ATOMIC_POSITIONS (crystal)
C       -0.012420113  -0.004169651   0.002715457
C        0.231435526  -0.012485430   0.005981924
C        0.483681013  -0.004172594   0.002889180
C        0.738619848   0.001700723  -0.004884908
C       -0.011246181   0.246619111   0.002252591
C        0.070745331   0.162072982   0.004109632
C        0.237621953   0.240567812   0.005782278
C        0.312863834   0.150318791   0.006695386
C        0.478350938   0.240563270   0.005620615
C        0.566754189   0.162078050   0.004098997
C        0.733296346   0.246622288   0.002233179
C        0.820627679   0.165767910  -0.000123290
C       -0.015786358   0.493082838   0.002527243
C        0.075355382   0.411861324   0.002467397
C        0.249911361   0.491113080   0.001662529
C        0.333060884   0.402742463   0.003803169
C        0.545091491   0.402677481   0.003510290
C        0.716494613   0.491084727   0.001746194
C        0.811873331   0.411809656   0.002492107
C       -0.018978735   0.740505995   0.003169178
C        0.066698073   0.658084146   0.003782381
C        0.234796497   0.740537815   0.003215537
C        0.323120052   0.658883613  -0.000770812
C        0.482212233   0.758345576  -0.006638535
F        0.575923804   0.677665903  -0.031360602
C        0.751773971   0.758450711  -0.005968746
C        0.811023018   0.658776526  -0.000763410
C        0.064769782   0.906526039   0.004355813
C        0.317217092   0.906591005   0.004359116
C        0.572110113   0.918159065  -0.003916250
C        0.821567807   0.918263867  -0.004088992
K_POINTS automatic 
  16 16 1   0 0 0 

