 &CONTROL
                 calculation = 'scf' ,
                      outdir = './tmp_subs/' ,
                  pseudo_dir = '/home/deleted/pseudo_psl' ,
                      prefix = 'GCl_ip-subs' ,
                   verbosity = 'high' ,
               etot_conv_thr = 1.0D-5 ,
               forc_conv_thr = 4.0D-4 ,
                       nstep = 1000 ,
                    dipfield = .true. ,
 /
 &SYSTEM
                       ibrav = 4,
                           A = 9.88 ,
                           C = 15 ,
                         nat = 31,
                        ntyp = 2,
                     ecutwfc = 40.424239707 ,
                     ecutrho = 404.24239707 ,
                 occupations = 'smearing' ,
                     degauss = 0.01 ,
				   input_dft = 'vdW-DF' ,
    nspin = 2 ,
    starting_magnetization(1) = 0.5,
    starting_magnetization(2) = 0.5,
 /
 &ELECTRONS
            electron_maxstep = 50001,
                    conv_thr = 1.0D-6 ,
                 mixing_mode = 'local-TF' ,
                 mixing_beta = 0.5 ,
 /
ATOMIC_SPECIES
    C   12.01100  C.revpbe-n-kjpaw_psl.0.1.UPF 
   Cl   35.45200  Cl.revpbe-n-kjpaw_psl.0.3.0.UPF 
ATOMIC_POSITIONS (crystal)
C        0.005079717   0.011311147  -0.005663282
C        0.255860969   0.012359300  -0.004463309
C        0.505707611   0.014198771   0.005907277
C        0.752670305   0.010724497   0.003636765
C        0.004159627   0.261181383   0.007304630
C        0.087931552   0.177069132   0.004865866
C        0.252494958   0.257862108   0.010798403
C        0.337838496   0.179934671  -0.006359834
C        0.505633258   0.262478964  -0.020085685
C        0.588991056   0.180108340  -0.006734417
C        0.755120466   0.261993888  -0.005344251
C        0.838276666   0.177981999   0.000607326
C        0.004895678   0.511745973   0.002069068
C        0.087114402   0.428646337   0.014449233
C        0.249951003   0.512542146   0.037121898
C        0.323944144   0.414154639   0.056592988
C        0.595189969   0.420806819  -0.046049182
C        0.756665615   0.509585583  -0.028961058
C        0.838700294   0.428028004  -0.009700655
C        0.006810550   0.761892082  -0.011012262
C        0.089049396   0.678298583   0.000172781
C        0.254149760   0.761492000   0.012479164
C        0.332159463   0.677262047   0.036929464
C        0.501459550   0.776790395   0.061578646
Cl       0.508885830   0.509500937  -0.108031106
C        0.768950913   0.768359814  -0.021559200
C        0.840638476   0.679065802  -0.024373284
C        0.088287692   0.928222205  -0.006865233
C        0.338241374   0.929094416   0.004509238
C        0.589078290   0.933256966   0.016624580
C        0.837516615   0.927228425  -0.007331510
K_POINTS automatic 
  16 16 1   0 0 0 

