 &CONTROL
                 calculation = 'nscf' ,
                      outdir = './tmp/' ,
                  pseudo_dir = '/home/deleted/pseudo_psl' ,
                      prefix = 'GBr_op' ,
                   verbosity = 'high' ,
               etot_conv_thr = 1.0D-5 ,
               forc_conv_thr = 4.0D-4 ,
                       nstep = 1000 ,
                    dipfield = .true. ,
 /
 &SYSTEM
                       ibrav = 4,
                           A = 9.88 ,
                           C = 15 ,
                         nat = 34,
                        ntyp = 4,
                     ecutwfc = 40.424239707 ,
                     ecutrho = 404.24239707 ,
                 occupations = 'tetrahedra' ,
                     degauss = 0.01 ,
				   input_dft = 'vdW-DF' ,
 /
 &ELECTRONS
            electron_maxstep = 50001,
                    conv_thr = 1.0D-6 ,
                 mixing_mode = 'local-TF' ,
                 mixing_beta = 0.5 ,
 /
ATOMIC_SPECIES
    C   12.01100  C.revpbe-n-kjpaw_psl.0.1.UPF 
   Br   79.90350  Br.revpbe-n-kjpaw_psl.0.2.UPF 
    O   15.99940  O.revpbe-n-kjpaw_psl.0.1.UPF 
    H   1.008000  H.revpbe-kjpaw_psl.0.1.UPF
ATOMIC_POSITIONS crystal 
C       -0.002359982  -0.002014076  -0.001546008
C        0.243839056  -0.012379022  -0.001575884
C        0.500428242  -0.002006900  -0.002341323
C        0.756571140   0.012933509  -0.002551770
C        0.006585447   0.254535466  -0.001960227
C        0.084031869   0.165163290  -0.001489485
C        0.251022279   0.241987692  -0.001524914
C        0.325089300   0.150100226  -0.001378734
C        0.491136861   0.242031687  -0.001902835
C        0.581283432   0.165167354  -0.002112915
C        0.748150882   0.254520884  -0.002399099
C        0.837873518   0.175535655  -0.002238589
C        0.000020735   0.499805779  -0.002950043
C        0.095089405   0.419366442  -0.002567351
C        0.272783905   0.497329523  -0.002906939
C        0.351014977   0.404174699  -0.002286626
C        0.553338762   0.404160864  -0.002528296
C        0.724833339   0.497317962  -0.003179785
C        0.824518808   0.419342319  -0.002854496
C       -0.013466176   0.743640995  -0.002831711
C        0.081721791   0.663266619  -0.003089738
C        0.257307315   0.743747405  -0.002994527
C        0.356761688   0.665894288  -0.003411862
C        0.528136113   0.759153580  -0.003144057
Br       0.614422748   0.701080096   0.196564586
C        0.730721750   0.758938155  -0.001897871
C        0.809376500   0.665729968  -0.003215749
C        0.075082071   0.908610523  -0.001790721
C        0.333637940   0.908601565  -0.002228917
C        0.590677843   0.921316317  -0.002957690
C        0.830743833   0.921383176  -0.002031879
O        0.622101929   0.764295648   0.430246076
O        0.578737873   0.647539723   0.371246804
H        0.676067615   0.650687427   0.350995338
K_POINTS automatic  
  20 20 1   0 0 0 

