 &CONTROL
                 calculation = 'bands' ,
                      outdir = './tmp/' ,
                  pseudo_dir = '/home/deleted/pseudo_psl' ,
                      prefix = 'GCl_op' ,
                   verbosity = 'high' ,
               etot_conv_thr = 1.0D-5 ,
               forc_conv_thr = 4.0D-4 ,
                       nstep = 1000 ,
                    dipfield = .true. ,
 /
 &SYSTEM
                       ibrav = 4,
                           A = 9.88 ,
                           C = 15 ,
                         nat = 34,
                        ntyp = 4,
                     ecutwfc = 40.424239707 ,
                     ecutrho = 404.24239707 ,
                 occupations = 'tetrahedra' ,
                     degauss = 0.01 ,
				   input_dft = 'vdW-DF' ,
    nspin = 2 ,
    starting_magnetization(1) = 0.5,
    starting_magnetization(2) = 0.5,
    starting_magnetization(3) = 0.7,
 /
 &ELECTRONS
            electron_maxstep = 50001,
                    conv_thr = 1.0D-6 ,
                 mixing_mode = 'local-TF' ,
                 mixing_beta = 0.5 ,
 /
ATOMIC_SPECIES
    C   12.01100  C.revpbe-n-kjpaw_psl.0.1.UPF 
   Cl   35.45200  Cl.revpbe-n-kjpaw_psl.0.3.0.UPF 
    O   15.99940  O.revpbe-n-kjpaw_psl.0.1.UPF 
    H   1.008000  H.revpbe-kjpaw_psl.0.1.UPF
ATOMIC_POSITIONS (crystal)
C        0.011158944  -0.018786342  -0.007907525
C        0.257385224  -0.029175254  -0.008101025
C        0.513981283  -0.018780008  -0.008382129
C        0.770403141  -0.003139089  -0.008171260
C        0.020520804   0.238062142  -0.007737996
C        0.097700636   0.148582782  -0.007720079
C        0.264654244   0.225166705  -0.007921098
C        0.338460175   0.132904659  -0.008399513
C        0.504469094   0.225141221  -0.009030627
C        0.594811653   0.148569528  -0.008719932
C        0.761456726   0.238045862  -0.008238084
C        0.851425512   0.158926414  -0.007918792
C        0.013698557   0.483493964  -0.008009397
C        0.109143246   0.402800020  -0.007864891
C        0.286497185   0.480427533  -0.008012134
C        0.364958478   0.387177355  -0.008046799
C        0.566203436   0.387129201  -0.008713179
C        0.737901491   0.480422387  -0.008493995
C        0.837568464   0.402790432  -0.008189279
C       -0.000319602   0.726956919  -0.008166860
C        0.095087452   0.646263052  -0.008071860
C        0.271198757   0.726961417  -0.008121561
C        0.370894358   0.649330892  -0.008262259
C        0.542531549   0.742627045  -0.008539654
Cl       0.681724602   0.689163679   0.220152323
C        0.744049755   0.742620751  -0.008793960
C        0.822383816   0.649304510  -0.008580744
C        0.088317309   0.891708150  -0.007936995
C        0.347320238   0.891704068  -0.008196688
C        0.604346669   0.904631477  -0.008367885
C        0.844228119   0.904625814  -0.008325636
O        0.582052732   1.262029076   0.210146675
O        0.447101477   1.149983543   0.215322249
H        0.689846285   0.679169713   0.305292555
K_POINTS automatic 
  20 20 1   0 0 0 

