 &BANDS
                      prefix = 'GF_op' ,
                      outdir = './tmp/' ,
                     filband = 'GF_bands' ,
                     plot_2d = .false. ,
 /
