 &CONTROL
                 calculation = 'nscf' ,
                      outdir = './tmp/' ,
                  pseudo_dir = '/home/deleted/pseudo_psl' ,
                      prefix = 'GCl_ip' ,
                   verbosity = 'high' ,
               etot_conv_thr = 1.0D-5 ,
               forc_conv_thr = 4.0D-4 ,
                       nstep = 1000 ,
                    dipfield = .true. ,
 /
 &SYSTEM
                       ibrav = 4,
                           A = 9.88 ,
                           C = 15 ,
                         nat = 34,
                        ntyp = 4,
                     ecutwfc = 40.424239707 ,
                     ecutrho = 404.24239707 ,
                 occupations = 'tetrahedra' ,
                     degauss = 0.01 ,
				   input_dft = 'vdW-DF' ,
 /
 &ELECTRONS
            electron_maxstep = 50001,
                    conv_thr = 1.0D-6 ,
                 mixing_mode = 'local-TF' ,
                 mixing_beta = 0.5 ,
 /
ATOMIC_SPECIES
    C   12.01100  C.revpbe-n-kjpaw_psl.0.1.UPF 
   Cl   35.45200  Cl.revpbe-n-kjpaw_psl.0.3.0.UPF 
    O   15.99940  O.revpbe-n-kjpaw_psl.0.1.UPF 
    H   1.008000  H.revpbe-kjpaw_psl.0.1.UPF
ATOMIC_POSITIONS crystal 
C        0.004133685   0.002085232   0.008800846
C        0.249265715  -0.004432018   0.016400428
C        0.500962398   0.002243893   0.007847322
C        0.754913848   0.006819976  -0.008139070
C        0.004966032   0.252376108   0.007201203
C        0.087247393   0.168329047   0.012123969
C        0.254574231   0.248378885   0.015746288
C        0.330837020   0.158608604   0.018168502
C        0.496966946   0.248377368   0.015641544
C        0.584223719   0.168373411   0.011634204
C        0.750609318   0.252308698   0.006892016
C        0.837026801   0.170874013   0.001731058
C        0.001649278   0.499828272   0.007403007
C        0.091462806   0.417853141   0.007118079
C        0.265305381   0.498909650   0.004474761
C        0.347615422   0.410549149   0.010670229
C        0.566013227   0.410489335   0.011030948
C        0.737052604   0.498712467   0.004766437
C        0.829831685   0.417752619   0.007026164
C       -0.000797270   0.747598113   0.009435807
C        0.083981400   0.664650715   0.011316577
C        0.251782634   0.747827642   0.009142412
C        0.337659495   0.666630008  -0.003250239
C        0.495730173   0.764008475  -0.022377767
Cl       0.593902631   0.683824172  -0.084132275
C        0.769863008   0.763227307  -0.019833890
C        0.832102198   0.666303781  -0.002265983
C        0.082436861   0.913984369   0.012347993
C        0.334603115   0.914006403   0.011911438
C        0.586607598   0.924283147  -0.009810144
C        0.840140383   0.923948710  -0.008164665
O        0.707414673   0.914621563   0.160819931
O        0.612000630   0.749773019   0.149465599
H        0.681459213   0.710356440   0.167610301
K_POINTS automatic 
  20 20 1   0 0 0 

