 &CONTROL
                 calculation = 'bands' ,
                      outdir = './tmp/' ,
                  pseudo_dir = '/home/deleted/pseudo_psl' ,
                      prefix = 'GCl_ip' ,
                   verbosity = 'high' ,
               etot_conv_thr = 1.0D-5 ,
               forc_conv_thr = 4.0D-4 ,
                       nstep = 1000 ,
                    dipfield = .true. ,
 /
 &SYSTEM
                       ibrav = 4,
                           A = 9.88 ,
                           C = 15 ,
                         nat = 32,
                        ntyp = 3,
                     ecutwfc = 40.424239707 ,
                     ecutrho = 404.24239707 ,
                 occupations = 'tetrahedra' ,
                     degauss = 0.01 ,
				   input_dft = 'vdW-DF' ,
 /
 &ELECTRONS
            electron_maxstep = 50001,
                    conv_thr = 1.0D-6 ,
                 mixing_mode = 'local-TF' ,
                 mixing_beta = 0.5 ,
 /
ATOMIC_SPECIES
    C   12.01100  C.revpbe-n-kjpaw_psl.0.1.UPF 
   Cl   35.45200  Cl.revpbe-n-kjpaw_psl.0.3.0.UPF 
    O   15.99940  O.revpbe-n-kjpaw_psl.0.1.UPF 
ATOMIC_POSITIONS crystal 
C       -0.007193092   0.001320168   0.003181441
C        0.241677496  -0.002657227   0.008531596
C        0.495294826   0.001827679   0.008893802
C        0.749283999   0.009197926   0.001299819
C       -0.002428101   0.254787523   0.008287118
C        0.076528077   0.167571409   0.008367501
C        0.242406658   0.246478159   0.011780122
C        0.324674304   0.162313618   0.010836570
C        0.491824305   0.247075564   0.010970457
C        0.578621155   0.168028105   0.009110301
C        0.744975996   0.254562291   0.009697639
C        0.830929430   0.173534319   0.006723720
C       -0.004499111   0.502993537   0.010401723
C        0.083060278   0.421112497   0.010656278
C        0.251847758   0.501661502   0.012471599
C        0.326328039   0.410138389   0.014363480
C        0.571340949   0.410246930   0.012484493
C        0.738470224   0.502385863   0.008820962
C        0.826431924   0.420660859   0.010366215
C       -0.011430673   0.749842507   0.007330640
C        0.077844620   0.668335567   0.010425068
C        0.248641227   0.750660263   0.009977774
C        0.340617610   0.670395406   0.010780536
C        0.507465383   0.760112729   0.010409130
Cl       0.670478061   0.707631742  -0.141649335
C        0.737260127   0.757346360  -0.021324026
C        0.819122547   0.668724128   0.002711817
C        0.075212755   0.916498093   0.005190528
C        0.328774149   0.916119945   0.009455022
C        0.581638641   0.921385084   0.006574184
C        0.828001795   0.923654970  -0.005763222
O        0.486798639   0.486054103   0.018637044
K_POINTS crystal_b 
4
0.0000000000    0.0000000000    0.0000000000 17
0.0000000000    0.5000000000    0.0000000000 10
0.3333333333    0.3333333333    0.0000000000 20
0.0000000000    0.0000000000    0.0000000000 1

