 &CONTROL
                 calculation = 'bands' ,
                      outdir = './tmp/' ,
                  pseudo_dir = '/home/deleted/pseudo_psl' ,
                      prefix = 'GI_ip' ,
                   verbosity = 'high' ,
               etot_conv_thr = 1.0D-5 ,
               forc_conv_thr = 4.0D-4 ,
                       nstep = 1000 ,
                    dipfield = .true. ,
 /
 &SYSTEM
                       ibrav = 4,
                           A = 9.88 ,
                           C = 15 ,
                         nat = 33,
                        ntyp = 3,
                     ecutwfc = 40.424239707 ,
                     ecutrho = 404.24239707 ,
                 occupations = 'tetrahedra' ,
                     degauss = 0.01 ,
				   input_dft = 'vdW-DF' ,
    nspin = 2 ,
    starting_magnetization(1) = 0.5,
    starting_magnetization(2) = 0.5,
    starting_magnetization(3) = 0.5,
 /
 &ELECTRONS
            electron_maxstep = 50001,
                    conv_thr = 1.0D-6 ,
                 mixing_mode = 'local-TF' ,
                 mixing_beta = 0.5 ,
 /
ATOMIC_SPECIES
    C   12.01100  C.revpbe-n-kjpaw_psl.0.1.UPF 
    I  126.90400  I.revpbe-n-kjpaw_psl.0.2.UPF 
    O   15.99940  O.revpbe-n-kjpaw_psl.0.1.UPF 
ATOMIC_POSITIONS (crystal)
C        0.003521879   0.013256616   0.005161265
C        0.252410459   0.011942208   0.003737695
C        0.502481853   0.013411320   0.012087021
C        0.754778619   0.015808473   0.011325427
C        0.003529490   0.263431054   0.016346680
C        0.086819875   0.179262886   0.012878335
C        0.251982552   0.259234375   0.018749752
C        0.335245896   0.178450901   0.003152260
C        0.503154621   0.260576584  -0.009681459
C        0.586965638   0.179994946   0.006512156
C        0.753279826   0.263939572   0.007568022
C        0.838123888   0.181513452   0.012405808
C        0.002750369   0.513698603   0.009449337
C        0.087478578   0.431167143   0.018137268
C        0.252418977   0.512651108   0.028913725
C        0.324812916   0.418934941   0.056932783
C        0.591424419   0.416313500  -0.040156966
C        0.750431629   0.510360144  -0.016262685
C        0.835110024   0.429752973   0.003135091
C        0.000065661   0.762088952  -0.000184839
C        0.086211038   0.679624397   0.005875391
C        0.254575460   0.762344973   0.010663653
C        0.339873935   0.678590316   0.020249579
C        0.507792946   0.768304435   0.015172511
I        0.499774991   0.478379534  -0.155274507
C        0.753468889   0.767754267   0.000542461
C        0.831570793   0.679300804  -0.008724127
C        0.085053206   0.928709695   0.003598311
C        0.336717917   0.928823366   0.007017373
C        0.587784177   0.932061634   0.013684785
C        0.837170816   0.931995142   0.006186360
O        0.592331004   0.691683186   0.006546068
O        0.429094266   0.464428452   0.114255467
K_POINTS automatic 
  20 20 1   0 0 0 

