 &CONTROL
                 calculation = 'scf' ,
                      outdir = './tmp/' ,
                  pseudo_dir = '/home/deleted/pseudo_psl' ,
                      prefix = 'GF_ip' ,
                   verbosity = 'high' ,
               etot_conv_thr = 1.0D-5 ,
               forc_conv_thr = 4.0D-4 ,
                       nstep = 1000 ,
                    dipfield = .true. ,
 /
 &SYSTEM
                       ibrav = 4,
                           A = 9.88 ,
                           C = 15 ,
                         nat = 33,
                        ntyp = 3,
                     ecutwfc = 40.424239707 ,
                     ecutrho = 404.24239707 ,
                 occupations = 'smearing' ,
                     degauss = 0.01 ,
				   input_dft = 'vdW-DF' ,
 /
 &ELECTRONS
            electron_maxstep = 50001,
                    conv_thr = 1.0D-6 ,
                 mixing_mode = 'local-TF' ,
                 mixing_beta = 0.5 ,
 /
ATOMIC_SPECIES
    C   12.01100  C.revpbe-n-kjpaw_psl.0.1.UPF 
    F   18.99800  F.revpbe-n-kjpaw_psl.0.1.UPF 
    O   15.99940  O.revpbe-n-kjpaw_psl.0.1.UPF 
ATOMIC_POSITIONS crystal 
C       -0.002453135   0.009682839   0.003176440
C        0.246625364   0.008384167  -0.001452768
C        0.495852966   0.006882327  -0.007660383
C        0.747488898   0.006578516  -0.005413190
C       -0.003104932   0.258369594  -0.008240790
C        0.080206661   0.175544994  -0.007036947
C        0.247945225   0.259919507  -0.008871835
C        0.331917414   0.175538698   0.002039843
C        0.495461233   0.253328453   0.014924081
C        0.579027412   0.172713047   0.004206734
C        0.746685653   0.257379522   0.002827138
C        0.829351898   0.174312651  -0.005295353
C       -0.003797486   0.508145732  -0.002514348
C        0.078822276   0.424542317  -0.012463358
C        0.245805785   0.506649148  -0.024966738
C        0.319436874   0.418857826  -0.024355111
C        0.583937116   0.409525028   0.060013486
C        0.752621267   0.509416774   0.033277356
C        0.830874420   0.425178976   0.009529640
C       -0.002431855   0.757729306   0.010906327
C        0.079750179   0.674824857  -0.001423371
C        0.245887280   0.758458369  -0.012222387
C        0.328020776   0.676210858  -0.028299563
C        0.490147060   0.765243467  -0.038891931
F        0.565443525   0.690521571  -0.070339532
C        0.762476910   0.772165370   0.055527084
C        0.834852263   0.673812627   0.033575181
C        0.080880167   0.925332113   0.004699005
C        0.329790371   0.924498816  -0.007207830
C        0.579513339   0.924502188  -0.017384757
C        0.833129107   0.928809919   0.010303531
O        0.526030370   0.435652894   0.125702454
O        0.662935972   0.740642772   0.113331890
K_POINTS automatic 
  16 16 1   0 0 0 

