 &CONTROL
                 calculation = 'scf' ,
                      outdir = './tmp/' ,
                  pseudo_dir = '/home/deleted/pseudo_psl' ,
                      prefix = 'GCl_ip' ,
                   verbosity = 'high' ,
               etot_conv_thr = 1.0D-5 ,
               forc_conv_thr = 4.0D-4 ,
                       nstep = 1000 ,
                    dipfield = .true. ,
 /
 &SYSTEM
                       ibrav = 4,
                           A = 9.88 ,
                           C = 15 ,
                         nat = 32,
                        ntyp = 3,
                     ecutwfc = 40.424239707 ,
                     ecutrho = 404.24239707 ,
                 occupations = 'smearing' ,
                     degauss = 0.01 ,
				   input_dft = 'vdW-DF' ,
 /
 &ELECTRONS
            electron_maxstep = 50001,
                    conv_thr = 1.0D-6 ,
                 mixing_mode = 'local-TF' ,
                 mixing_beta = 0.5 ,
 /
ATOMIC_SPECIES
    C   12.01100  C.revpbe-n-kjpaw_psl.0.1.UPF 
   Cl   35.45200  Cl.revpbe-n-kjpaw_psl.0.3.0.UPF 
    O   15.99940  O.revpbe-n-kjpaw_psl.0.1.UPF 
ATOMIC_POSITIONS crystal 
C        0.001035298   0.006318865   0.010340099
C        0.250327243   0.004976626  -0.001897964
C        0.500990902   0.006294978   0.010032477
C        0.753062575   0.010411665   0.022515258
C        0.002268676   0.257664047   0.010958543
C        0.083058699   0.171976824   0.004652011
C        0.246249935   0.250920239  -0.015077573
C        0.332431908   0.169167270  -0.015835963
C        0.500389619   0.250908658  -0.015287202
C        0.584662272   0.171938139   0.004279204
C        0.751143818   0.257656628   0.010686841
C        0.835415224   0.175097503   0.016685689
C        0.001671211   0.507625810   0.012704760
C        0.085245923   0.424167490   0.009693533
C        0.252793545   0.507106132  -0.002302187
C        0.315091339   0.412739777  -0.026857036
C        0.593375514   0.412778114  -0.026983138
C        0.750035678   0.507139981  -0.002379845
C        0.834644167   0.424177993   0.009565810
C       -0.000361565   0.756601214   0.007961809
C        0.084848248   0.673962272   0.008029601
C        0.252688958   0.756591760   0.007937662
C        0.340571050   0.674511068   0.008901260
C        0.504990403   0.762091588   0.021969629
Cl       0.492072173   0.488607192  -0.091550561
C        0.752808186   0.762087451   0.021981134
C        0.829678030   0.674531473   0.008916354
C        0.083607506   0.922420166   0.005487543
C        0.334487368   0.922398152   0.005330490
C        0.586139941   0.926187631   0.020407703
C        0.835763941   0.926194826   0.020563101
O        0.590979991   0.686264977   0.038570961
K_POINTS automatic 
  16 16 1   0 0 0 

