 &CONTROL
                 calculation = 'scf' ,
                      outdir = './tmp/' ,
                  pseudo_dir = '/home/deleted/pseudo_psl' ,
                      prefix = 'GI_op' ,
                   verbosity = 'high' ,
               forc_conv_thr = 4.0D-4 ,
                       nstep = 1000 ,
                    dipfield = .true. ,
 /
 &SYSTEM
                       ibrav = 4,
                           A = 9.88 ,
                           C = 15 ,
                         nat = 33,
                        ntyp = 3,
                     ecutwfc = 40.424239707 ,
                     ecutrho = 404.24239707 ,
                 occupations = 'smearing' ,
                     degauss = 0.01 ,
				   input_dft = 'vdW-DF' ,
    nspin = 2 ,
    starting_magnetization(1) = 0.5,
    starting_magnetization(2) = 0.5,
    starting_magnetization(3) = 0.5,
 /
 &ELECTRONS
            electron_maxstep = 50001,
                    conv_thr = 1.0D-6 ,
                 mixing_mode = 'local-TF' ,
                 mixing_beta = 0.5 ,
 /
ATOMIC_SPECIES
    C   12.01100  C.revpbe-n-kjpaw_psl.0.1.UPF 
    I  126.90400  I.revpbe-n-kjpaw_psl.0.2.UPF 
    O   15.99940  O.revpbe-n-kjpaw_psl.0.1.UPF 
ATOMIC_POSITIONS (crystal)
C       -0.018710324  -0.002627040  -0.003324680
C        0.227428630  -0.012906092  -0.003392297
C        0.483958408  -0.002600065  -0.002802793
C        0.740223477   0.012557881  -0.002674399
C       -0.009817156   0.253931981  -0.002341820
C        0.067546763   0.164519347  -0.002701102
C        0.234537183   0.241338724  -0.002951102
C        0.308634668   0.149448810  -0.002981922
C        0.474652783   0.241352514  -0.002817983
C        0.564844557   0.164594578  -0.002506562
C        0.731619044   0.254013292  -0.002313324
C        0.821338071   0.174858273  -0.002161846
C       -0.016391897   0.499333301  -0.003184139
C        0.078618116   0.418728683  -0.002786473
C        0.256163395   0.496568934  -0.003308365
C        0.334203565   0.403412632  -0.003269881
C        0.537187790   0.403462376  -0.003303702
C        0.708373137   0.496689827  -0.003657713
C        0.808034278   0.418807229  -0.002937358
C       -0.029779085   0.743245841  -0.004485858
C        0.065184035   0.662663368  -0.003918796
C        0.240813118   0.743206447  -0.003650558
C        0.340574351   0.665399781  -0.003699511
C        0.511842137   0.758575573  -0.003779906
I        0.871502219   0.740609479   0.254379311
C        0.714739191   0.758658824  -0.004425091
C        0.792739647   0.665505079  -0.004537207
C        0.058606767   0.907954792  -0.003974829
C        0.317174503   0.907989428  -0.003287760
C        0.574191613   0.920650148  -0.003034512
C        0.814371118   0.920708437  -0.003504076
O        0.581205021   0.652123142   0.205831500
O        0.481057539   0.510557814   0.204171417
K_POINTS automatic 
  16 16 1   0 0 0 

