 &CONTROL
                 calculation = 'scf' ,
                      outdir = './tmp/' ,
                  pseudo_dir = '/home/deleted/pseudo_psl' ,
                      prefix = 'GF_op' ,
                   verbosity = 'high' ,
               etot_conv_thr = 1.0D-5 ,
               forc_conv_thr = 4.0D-4 ,
                       nstep = 1000 ,
                    dipfield = .true. ,
 /
 &SYSTEM
                       ibrav = 4,
                           A = 9.88 ,
                           C = 15 ,
                         nat = 34,
                        ntyp = 4,
                     ecutwfc = 40.424239707 ,
                     ecutrho = 404.24239707 ,
                 occupations = 'smearing' ,
                     degauss = 0.01 ,
				   input_dft = 'vdW-DF' ,
    nspin = 2 ,
    starting_magnetization(1) = 0.5,
    starting_magnetization(2) = 0.5,
    starting_magnetization(3) = 0.5,
 /
 &ELECTRONS
            electron_maxstep = 50001,
                    conv_thr = 1.0D-6 ,
                 mixing_mode = 'local-TF' ,
                 mixing_beta = 0.5 ,
 /
ATOMIC_SPECIES
    C   12.01100  C.revpbe-n-kjpaw_psl.0.1.UPF 
    F   18.99800  F.revpbe-n-kjpaw_psl.0.1.UPF 
    O   15.99940  O.revpbe-n-kjpaw_psl.0.1.UPF 
    H   1.008000  H.revpbe-kjpaw_psl.0.1.UPF
ATOMIC_POSITIONS (crystal)
C       -0.001427983  -0.007555268  -0.001567486
C        0.242592014  -0.015773374   0.001764974
C        0.494693831  -0.007617459  -0.002653312
C        0.749540576  -0.001724376  -0.010087810
C       -0.000146885   0.243313347  -0.002018306
C        0.081737511   0.158699594   0.000095174
C        0.248601925   0.237212992   0.001889939
C        0.323966392   0.147052647   0.002797149
C        0.489498852   0.237130431   0.001522111
C        0.577851856   0.158587191  -0.000622615
C        0.744370688   0.243204415  -0.002420558
C        0.831610845   0.162273891  -0.004695962
C       -0.004520639   0.489835267  -0.002248101
C        0.086495789   0.408564435  -0.002062888
C        0.261084622   0.487958114  -0.003291063
C        0.343615990   0.399431357  -0.000698707
C        0.556555890   0.399297806  -0.000551042
C        0.727860042   0.487740852  -0.002972555
C        0.823168885   0.408498148  -0.002146698
C       -0.007720197   0.737261931  -0.001410637
C        0.077978450   0.654864855  -0.001211069
C        0.246049314   0.737365613  -0.002409002
C        0.334314183   0.655744147  -0.007040120
C        0.492585486   0.755494855  -0.015112914
F        0.587842771   0.673681952  -0.035227796
C        0.762860259   0.755112094  -0.012356794
C        0.822266935   0.655635839  -0.005599296
C        0.075902881   0.903320640   0.000042235
C        0.328310801   0.903241434  -0.000768765
C        0.583035337   0.914852571  -0.010419682
C        0.832564477   0.914842383  -0.009086408
O        0.555804312   0.679992711   0.167129099
O        0.429575587   0.701027390   0.192156069
H        0.536925479   0.587279394   0.201250723
K_POINTS automatic 
  16 16 1   0 0 0 

