 &CONTROL
                 calculation = 'relax' ,
                      outdir = './tmp/' ,
                  pseudo_dir = '/home/deleted/pseudo_psl' ,
                      prefix = 'GF_ip' ,
                   verbosity = 'high' ,
               etot_conv_thr = 1.0D-5 ,
               forc_conv_thr = 4.0D-4 ,
                       nstep = 1000 ,
                    dipfield = .true. ,
 /
 &SYSTEM
                       ibrav = 4,
                           A = 9.88 ,
                           C = 15 ,
                         nat = 34,
                        ntyp = 4,
                     ecutwfc = 40.424239707 ,
                     ecutrho = 404.24239707 ,
                 occupations = 'smearing' ,
                     degauss = 0.01 ,
				   input_dft = 'vdW-DF' ,
    nspin = 2 ,
    starting_magnetization(1) = 0.5,
    starting_magnetization(2) = 0.5,
    starting_magnetization(3) = 0.5,
	starting_magnetization(4) = 0.5,
 /
 &ELECTRONS
            electron_maxstep = 50001,
                    conv_thr = 1.0D-6 ,
                 mixing_mode = 'local-TF' ,
                 mixing_beta = 0.5 ,
 /
 &IONS
                ion_dynamics = 'bfgs' ,
 /
ATOMIC_SPECIES
    C   12.01100  C.revpbe-n-kjpaw_psl.0.1.UPF 
    F   18.99800  F.revpbe-n-kjpaw_psl.0.1.UPF 
    O   15.99940  O.revpbe-n-kjpaw_psl.0.1.UPF 
    H   1.008000  H.revpbe-kjpaw_psl.0.1.UPF
ATOMIC_POSITIONS (crystal)
C        0.003533213   0.004151203  -0.002938358
C        0.247470556  -0.004125983   0.000423269
C        0.499706438   0.004226462  -0.003200656
C        0.754555850   0.010087005  -0.011018325
C        0.004807579   0.255028943  -0.004473219
C        0.086733876   0.170424546  -0.002207659
C        0.253603024   0.248887044  -0.000652489
C        0.328870219   0.158674073   0.000840393
C        0.494368006   0.248915133  -0.000316457
C        0.582805605   0.170481959  -0.002067913
C        0.749342477   0.255026584  -0.004323763
C        0.836635502   0.174183692  -0.006687023
C        0.000328797   0.501484407  -0.004016615
C        0.091413093   0.420238108  -0.004241182
C        0.266020879   0.499474836  -0.004842308
C        0.348926904   0.411001481  -0.003099818
C        0.561104696   0.411066204  -0.002494928
C        0.732594323   0.499432507  -0.004553982
C        0.827979641   0.420255671  -0.004078127
C       -0.002896559   0.748867752  -0.002472237
C        0.082819794   0.666486659  -0.002256357
C        0.250913494   0.748927121  -0.002717861
C        0.339228202   0.667244838  -0.006947110
C        0.498145165   0.766864634  -0.012477690
F        0.592791135   0.685937153  -0.037012286
C        0.767577245   0.766715704  -0.012114248
C        0.827116304   0.667198411  -0.006538740
C        0.080756933   0.914924296  -0.001170591
C        0.333229620   0.914941352  -0.001320500
C        0.588145298   0.926645986  -0.010141940
C        0.837445264   0.926515605  -0.009724332
O        0.460195375   0.647017082   0.202637262
O        0.592862427   0.702154773   0.166205793
H        0.587218515   0.535861174   0.191699466
K_POINTS automatic 
  4 4 1   0 0 0 

