 &CONTROL
                 calculation = 'scf' ,
                      outdir = './tmp_subs/' ,
                  pseudo_dir = '/home/deleted/pseudo_psl' ,
                      prefix = 'GBr_op_subs' ,
                   verbosity = 'high' ,
               etot_conv_thr = 1.0D-5 ,
               forc_conv_thr = 4.0D-4 ,
                       nstep = 1000 ,
                    dipfield = .true. ,
 /
 &SYSTEM
                       ibrav = 4,
                           A = 9.88 ,
                           C = 15 ,
                         nat = 31,
                        ntyp = 2,
                     ecutwfc = 40.424239707 ,
                     ecutrho = 404.24239707 ,
                 occupations = 'smearing' ,
                     degauss = 0.01 ,
				   input_dft = 'vdW-DF' ,
 /
 &ELECTRONS
            electron_maxstep = 50001,
                    conv_thr = 1.0D-6 ,
                 mixing_mode = 'local-TF' ,
                 mixing_beta = 0.5 ,
 /
ATOMIC_SPECIES
    C   12.01100  C.revpbe-n-kjpaw_psl.0.1.UPF 
   Br   79.90350  Br.revpbe-n-kjpaw_psl.0.2.UPF 
ATOMIC_POSITIONS crystal 
C        0.004095698   0.002620637  -0.007867691
C        0.250362536  -0.007620295  -0.007888250
C        0.506768950   0.002551332  -0.008358013
C        0.762929227   0.017619056  -0.008280227
C        0.013016141   0.259181521  -0.008171806
C        0.090413122   0.169812976  -0.007855740
C        0.257403168   0.246649840  -0.008119341
C        0.331548039   0.154783541  -0.007827365
C        0.497545615   0.246600385  -0.008258726
C        0.587671591   0.169727297  -0.008201134
C        0.754466567   0.259135520  -0.008403059
C        0.844178216   0.180021267  -0.008087022
C        0.006448423   0.504517437  -0.009092802
C        0.101474238   0.424001970  -0.008864745
C        0.278995770   0.501871149  -0.009400002
C        0.357036048   0.408754314  -0.009060526
C        0.559973300   0.408740795  -0.009023277
C        0.731196942   0.501849546  -0.009388902
C        0.830878921   0.423971242  -0.008981783
C       -0.006871027   0.748472979  -0.008881131
C        0.088176628   0.667962513  -0.009087548
C        0.263634731   0.748472497  -0.009121727
C        0.363325527   0.670622267  -0.009635053
C        0.534457111   0.763711937  -0.009661377
Br       0.544273051   0.584051354   0.215250842
C        0.737487631   0.763662995  -0.009238078
C        0.815586720   0.670612764  -0.009431802
C        0.081539748   0.913275150  -0.008072512
C        0.340004631   0.913224720  -0.008412714
C        0.596932930   0.925777559  -0.008953623
C        0.837108873   0.925775303  -0.008378195
K_POINTS automatic 
  16 16 1   0 0 0 

