 &CONTROL
                 calculation = 'scf' ,
                      outdir = './tmp/' ,
                  pseudo_dir = '/home/deleted/pseudo_psl' ,
                      prefix = 'GI_ip' ,
                   verbosity = 'high' ,
               etot_conv_thr = 1.0D-5 ,
               forc_conv_thr = 4.0D-4 ,
                       nstep = 1000 ,
                    dipfield = .true. ,
 /
 &SYSTEM
                       ibrav = 4,
                           A = 9.88 ,
                           C = 15 ,
                         nat = 33,
                        ntyp = 3,
                     ecutwfc = 40.424239707 ,
                     ecutrho = 404.24239707 ,
                 occupations = 'smearing' ,
                     degauss = 0.01 ,
				   input_dft = 'vdW-DF' ,
    nspin = 2 ,
    starting_magnetization(1) = 0.5,
    starting_magnetization(2) = 0.5,
    starting_magnetization(3) = 0.5,
 /
 &ELECTRONS
            electron_maxstep = 50001,
                    conv_thr = 1.0D-6 ,
                 mixing_mode = 'local-TF' ,
                 mixing_beta = 0.5 ,
 /
ATOMIC_SPECIES
    C   12.01100  C.revpbe-n-kjpaw_psl.0.1.UPF 
    I  126.90400  I.revpbe-n-kjpaw_psl.0.2.UPF 
    O   15.99940  O.revpbe-n-kjpaw_psl.0.1.UPF 
ATOMIC_POSITIONS (crystal)
C       -0.001585294   0.002406705   0.004270128
C        0.250983232   0.009376514   0.007772765
C        0.496613855   0.002311780   0.003780735
C        0.744874575  -0.002747377  -0.005810146
C       -0.005635007   0.249180430   0.010990823
C        0.080209469   0.169518352   0.003684234
C        0.247023180   0.255983316  -0.008066374
C        0.333551408   0.174589633  -0.005840293
C        0.501514628   0.255960345  -0.006636118
C        0.581921079   0.169418572   0.004544171
C        0.747412066   0.249109856   0.011916316
C        0.827518780   0.162449062   0.007991663
C       -0.002569256   0.501892843   0.026964705
C        0.075232006   0.415995785   0.018098234
C        0.236558956   0.500766164   0.000853884
C        0.311576000   0.418875719  -0.018984736
C        0.599552258   0.419150609  -0.015336204
C        0.756371950   0.500740131   0.004626569
C        0.833418191   0.415833167   0.019962335
C        0.003524571   0.756022677   0.019718942
C        0.081452356   0.669949614   0.026850650
C        0.245139562   0.755852063   0.017931682
C        0.321719997   0.671094832   0.000760816
C        0.478611838   0.752974849  -0.019132686
I        0.540073509   0.585834078  -0.063330332
C        0.766354806   0.752680332  -0.015616271
C        0.841562597   0.671115035   0.004469404
C        0.084222419   0.922708979   0.011576378
C        0.331088098   0.922659951   0.010859450
C        0.576956660   0.915858267  -0.008049934
C        0.831473951   0.915879958  -0.006855185
O        0.532963617   0.586132551   0.159293789
O        0.416980601   0.583758549   0.196740603
K_POINTS automatic 
  16 16 1   0 0 0 

