 &CONTROL
                 calculation = 'bands' ,
                      outdir = './tmp/' ,
                  pseudo_dir = '/home/deleted/pseudo_psl' ,
                      prefix = 'GBr_op' ,
                   verbosity = 'high' ,
               etot_conv_thr = 1.0D-5 ,
               forc_conv_thr = 4.0D-4 ,
                       nstep = 1000 ,
                    dipfield = .true. ,
 /
 &SYSTEM
                       ibrav = 4,
                           A = 9.88 ,
                           C = 15 ,
                         nat = 34,
                        ntyp = 4,
                     ecutwfc = 40.424239707 ,
                     ecutrho = 404.24239707 ,
                 occupations = 'tetrahedra' ,
                     degauss = 0.01 ,
				   input_dft = 'vdW-DF' ,
    nspin = 2 ,
    starting_magnetization(1) = 0.5,
    starting_magnetization(2) = 0.5,
    starting_magnetization(3) = 0.5,
 /
 &ELECTRONS
            electron_maxstep = 50001,
                    conv_thr = 1.0D-6 ,
                 mixing_mode = 'local-TF' ,
                 mixing_beta = 0.5 ,
 /
ATOMIC_SPECIES
    C   12.01100  C.revpbe-n-kjpaw_psl.0.1.UPF 
   Br   79.90350  Br.revpbe-n-kjpaw_psl.0.2.UPF 
    O   15.99940  O.revpbe-n-kjpaw_psl.0.1.UPF 
    H   1.008000  H.revpbe-kjpaw_psl.0.1.UPF
ATOMIC_POSITIONS (crystal)
C        0.009009507   0.008981304  -0.000461933
C        0.254831917  -0.001158141  -0.003341396
C        0.511348326   0.009295965  -0.006333611
C        0.767988715   0.022095062  -0.003323205
C        0.017588939   0.264761012  -0.006196008
C        0.095705013   0.176181113  -0.004460739
C        0.262761955   0.253322691  -0.005651832
C        0.336807239   0.161974906  -0.004929724
C        0.503091825   0.254167052  -0.006642016
C        0.592830993   0.176627688  -0.006963752
C        0.759982038   0.264681348  -0.008137344
C        0.849512646   0.185826383  -0.006450836
C        0.011567286   0.510118567  -0.007585607
C        0.106412244   0.429974461  -0.007523578
C        0.283260269   0.508105602  -0.007343820
C        0.363232129   0.416140566  -0.007145657
C        0.565238280   0.416299020  -0.007132594
C        0.738549348   0.509027234  -0.007043927
C        0.837203647   0.429599044  -0.008380685
C       -0.001198373   0.753774818  -0.003468714
C        0.093152947   0.674148781  -0.005886071
C        0.267317217   0.754926132  -0.005256272
C        0.365217150   0.676754357  -0.006096223
C        0.534068620   0.769967624  -0.006508680
Br       0.685865053   0.726691648   0.161316463
C        0.742295965   0.766922318   0.015418925
C        0.825373385   0.674992403  -0.002283974
C        0.087446882   0.919916092  -0.001032630
C        0.344601055   0.919784116  -0.004889036
C        0.600894973   0.931762532  -0.006007024
C        0.843192246   0.933575974   0.003415701
O        0.222292104   0.354795563   0.215755555
O        0.163384493   0.438719832   0.206373890
H        0.230116463   0.506978240   0.404760171
K_POINTS automatic 
  20 20 1   0 0 0 

