 &CONTROL
                 calculation = 'scf' ,
                      outdir = './tmp/' ,
                  pseudo_dir = '/home/deleted/pseudo_psl' ,
                      prefix = 'PG_tlh' ,
                    dipfield = .true. ,
                   verbosity = 'high',
                       nstep = 1000,
               forc_conv_thr = 4.0D-4,
               etot_conv_thr = 1.0D-5
 /
 &SYSTEM
                       ibrav = 4,
                           A = 9.88 ,
                           C = 15 ,
                         nat = 34,
                        ntyp = 2,
                     ecutwfc = 40.424239707 ,
                     ecutrho = 404.24239707 ,
                 occupations = 'smearing' ,
                     degauss = 0.01 ,
				   input_dft = 'vdW-DF' ,
    nspin = 2 ,
    starting_magnetization(1) = 0.5,
	starting_magnetization(2) = 0.5,
 /
 &ELECTRONS
            electron_maxstep = 50001,
                    conv_thr = 1.0D-6 ,
                 mixing_mode = 'local-TF' ,
                 mixing_beta = 0.5 ,
 /
ATOMIC_SPECIES
    C   12.01100  C.revpbe-n-kjpaw_psl.0.1.UPF 
    O   15.99940  O.revpbe-n-kjpaw_psl.0.1.UPF 
ATOMIC_POSITIONS crystal 
C        0.000000120   0.000003336  -0.008551792
C        0.250004377   0.000004184  -0.008552653
C        0.499999405  -0.000007458  -0.008672792
C        0.749992885  -0.000007396  -0.008672033
C        0.000012186   0.250012937  -0.008673129
C        0.083340829   0.166673626  -0.008673233
C        0.250015447   0.250029894  -0.008879214
C        0.333335387   0.166676126  -0.008673871
C        0.499997756   0.250009493  -0.008674018
C        0.583327628   0.166662053  -0.008552450
C        0.750002248   0.250000753  -0.008532249
C        0.833332756   0.166661122  -0.008551583
C        0.000013014   0.499999611  -0.008673293
C        0.083356950   0.416677953  -0.008878854
C        0.250017108   0.500009148  -0.009273116
C        0.333337421   0.416677799  -0.009273212
C        0.499994542   0.500008202  -0.009273199
C        0.583319050   0.416680452  -0.008879462
C        0.749992972   0.499997806  -0.008673879
C        0.833331636   0.416672860  -0.008552438
C        0.000001642   0.749995207  -0.008552453
C        0.083339739   0.666667064  -0.008673357
C        0.250016180   0.749988415  -0.008878514
C        0.333336605   0.666657815  -0.009272599
C        0.499996333   0.749987446  -0.009272301
C        0.583317543   0.666659628  -0.009272810
C        0.749974149   0.749985153  -0.008878570
C        0.833320756   0.666667915  -0.008673628
C        0.083331479   0.916666155  -0.008532489
C        0.333334631   0.916654595  -0.008673102
C        0.583317789   0.916637180  -0.008877764
C        0.833322278   0.916657120  -0.008672251
O        0.416665533   0.583332139   0.199318014
O        0.416668285   0.583335009   0.282048296
K_POINTS automatic 
  16 16 1   0 0 0 

