 &CONTROL
                 calculation = 'bands' ,
                      outdir = './tmp/' ,
                  pseudo_dir = '/home/deleted/pseudo_psl' ,
                      prefix = 'GBr_ip' ,
                   verbosity = 'high' ,
               etot_conv_thr = 1.0D-5 ,
               forc_conv_thr = 4.0D-4 ,
                       nstep = 1000 ,
                    dipfield = .true. ,
 /
 &SYSTEM
                       ibrav = 4,
                           A = 9.88 ,
                           C = 15 ,
                         nat = 33,
                        ntyp = 3,
                     ecutwfc = 40.424239707 ,
                     ecutrho = 404.24239707 ,
                 occupations = 'tetrahedra' ,
                     degauss = 0.01 ,
				   input_dft = 'vdW-DF' ,
    nspin = 2 ,
    starting_magnetization(1) = 0.5,
    starting_magnetization(2) = 0.5,
    starting_magnetization(3) = 0.5,
 /
 &ELECTRONS
            electron_maxstep = 50001,
                    conv_thr = 1.0D-6 ,
                 mixing_mode = 'local-TF' ,
                 mixing_beta = 0.5 ,
 /
ATOMIC_SPECIES
    C   12.01100  C.revpbe-n-kjpaw_psl.0.1.UPF 
   Br   79.90350  Br.revpbe-n-kjpaw_psl.0.2.UPF 
    O   15.99940  O.revpbe-n-kjpaw_psl.0.1.UPF 
ATOMIC_POSITIONS (crystal)
C        0.000751103   0.010737160   0.002976012
C        0.253194982   0.017332555   0.005683916
C        0.499000369   0.010603806   0.001484094
C        0.747211202   0.005422921  -0.004471765
C       -0.003102802   0.257689379   0.007474703
C        0.082626165   0.177835434   0.002237690
C        0.250191308   0.264769495  -0.006237445
C        0.336017374   0.183047934  -0.004208770
C        0.503594527   0.264738233  -0.005117187
C        0.584254070   0.177704734   0.002499738
C        0.749808130   0.257608580   0.008195226
C        0.830082255   0.171122398   0.005671587
C       -0.000242235   0.510195503   0.018703120
C        0.077626756   0.424449448   0.011965126
C        0.240216315   0.509283168  -0.001326394
C        0.316589629   0.427759994  -0.015859024
C        0.600186600   0.428039092  -0.012154741
C        0.757774915   0.509244648   0.003075119
C        0.835865260   0.424227729   0.014116780
C        0.005870184   0.764228352   0.014135886
C        0.083822260   0.678283353   0.018616131
C        0.247409906   0.764054361   0.011526175
C        0.325175896   0.679286095  -0.001786166
C        0.482932220   0.760754958  -0.016934432
Br       0.542243299   0.594079551  -0.040100988
C        0.766480116   0.760471315  -0.012538213
C        0.842792712   0.679258656   0.003000978
C        0.086452270   0.930863720   0.008447277
C        0.333437118   0.930769572   0.006925255
C        0.579629188   0.923674563  -0.007039144
C        0.833105803   0.923732597  -0.005083336
O        0.544392408   0.594334066   0.178798466
O        0.470199665   0.658205804   0.207324323
K_POINTS automatic 
  20 20 1   0 0 0 

