 &CONTROL
                 calculation = 'relax' ,
                      outdir = './tmp/' ,
                  pseudo_dir = '/home/deleted/pseudo_psl' ,
                      prefix = 'GCl_op' ,
                   verbosity = 'high' ,
               etot_conv_thr = 1.0D-5 ,
               forc_conv_thr = 4.0D-4 ,
                       nstep = 1000 ,
                    dipfield = .true. ,
 /
 &SYSTEM
                       ibrav = 4,
                           A = 9.88 ,
                           C = 15 ,
                         nat = 34,
                        ntyp = 4,
                     ecutwfc = 40.424239707 ,
                     ecutrho = 404.24239707 ,
                 occupations = 'smearing' ,
                     degauss = 0.01 ,
				   input_dft = 'vdW-DF' ,
 /
 &ELECTRONS
            electron_maxstep = 50001,
                    conv_thr = 1.0D-6 ,
                 mixing_mode = 'local-TF' ,
                 mixing_beta = 0.5 ,
 /
 &IONS
                ion_dynamics = 'bfgs' ,
 /
ATOMIC_SPECIES
    C   12.01100  C.revpbe-n-kjpaw_psl.0.1.UPF 
   Cl   35.45200  Cl.revpbe-n-kjpaw_psl.0.3.0.UPF 
    O   15.99940  O.revpbe-n-kjpaw_psl.0.1.UPF 
    H   1.008000  H.revpbe-kjpaw_psl.0.1.UPF
ATOMIC_POSITIONS crystal 
C        0.001400905   0.010381158   0.012509659
C        0.249204841   0.006723486   0.003021989
C        0.500596565   0.010632186   0.003518582
C        0.752772171   0.014737757   0.029246187
C        0.001801653   0.261252720   0.013807840
C        0.083191639   0.176264736   0.009842596
C        0.248882075   0.256175054   0.006217012
C        0.333043770   0.172178132   0.005304212
C        0.496813143   0.253164977   0.009535551
C        0.583550254   0.176487959   0.006569881
C        0.750666226   0.261009056   0.011534258
C        0.834371415   0.179547907   0.018945599
C        0.000271885   0.509475024   0.009312329
C        0.085937712   0.426749125   0.010385329
C        0.255093723   0.508745878   0.010498949
C        0.332470891   0.419465331   0.004872900
C        0.575456253   0.420260990   0.033224555
C        0.748316007   0.510992818   0.015835227
C        0.831736855   0.428060544   0.010141127
C       -0.000891032   0.758780111   0.008853607
C        0.082258523   0.674875156   0.005194870
C        0.249973016   0.758475666   0.004385247
C        0.334948034   0.676853244   0.015065471
C        0.494815207   0.772057587   0.033434678
Cl       0.592559422   0.710927026   0.108673877
C        0.769107117   0.772439866   0.047377063
C        0.831425838   0.675487830   0.023443382
C        0.082477623   0.924804811   0.007431673
C        0.333730961   0.925132074   0.002433112
C        0.586083272   0.932634995   0.020020875
C        0.838657111   0.932266537   0.031012863
O        0.493386950   0.492843230  -0.006569282
O        0.555638565   0.426444797   0.135455995
H        0.605682963   0.370928563   0.158708398
K_POINTS automatic 
  4 4 1   0 0 0 

