 &CONTROL
                 calculation = 'relax' ,
                      outdir = './tmp/' ,
                  pseudo_dir = '/home/deleted/pseudo_psl' ,
                      prefix = 'GCl_op' ,
                   verbosity = 'high' ,
               etot_conv_thr = 1.0D-5 ,
               forc_conv_thr = 4.0D-4 ,
                       nstep = 1000 ,
                    dipfield = .true. ,
 /
 &SYSTEM
                       ibrav = 4,
                           A = 9.88 ,
                           C = 15 ,
                         nat = 34,
                        ntyp = 4,
                     ecutwfc = 40.424239707 ,
                     ecutrho = 404.24239707 ,
                 occupations = 'smearing' ,
                     degauss = 0.01 ,
				   input_dft = 'vdW-DF' ,
 /
 &ELECTRONS
            electron_maxstep = 50001,
                    conv_thr = 1.0D-6 ,
                 mixing_mode = 'local-TF' ,
                 mixing_beta = 0.5 ,
 /
 &IONS
                ion_dynamics = 'bfgs' ,
 /
ATOMIC_SPECIES
    C   12.01100  C.revpbe-n-kjpaw_psl.0.1.UPF 
   Cl   35.45200  Cl.revpbe-n-kjpaw_psl.0.3.0.UPF 
    O   15.99940  O.revpbe-n-kjpaw_psl.0.1.UPF 
    H   1.008000  H.revpbe-kjpaw_psl.0.1.UPF
ATOMIC_POSITIONS crystal 
C        0.013601540   0.024565480   0.003932458
C        0.258645809   0.017291619  -0.004652487
C        0.510963940   0.024565480   0.003932458
C        0.764771116   0.029542232   0.023312939
C        0.014651547   0.274851222   0.005000174
C        0.096829767   0.190773757   0.000109047
C        0.263999216   0.270517013  -0.004606822
C        0.340497583   0.180995166  -0.005405075
C        0.506517797   0.270517013  -0.004606822
C        0.593943990   0.190773757   0.000109047
C        0.760199674   0.274851222   0.005000174
C        0.846648014   0.193296030   0.010908381
C        0.011039978   0.522079957   0.004223939
C        0.100920645   0.440369996   0.004557078
C        0.274266776   0.521094371   0.006538093
C        0.357021854   0.432388444   0.000635030
C        0.575366588   0.432388444   0.000635030
C        0.746827596   0.521094371   0.006538093
C        0.839449350   0.440369996   0.004557078
C        0.008562457   0.769972005   0.001882629
C        0.093518850   0.687037701   0.000171764
C        0.261409548   0.769972005   0.001882629
C        0.347707560   0.688561354   0.013617889
C        0.505998559   0.785107682   0.033673322
Cl       0.602639982   0.705279966   0.096641819
C        0.779109124   0.785107682   0.033673322
C        0.840853792   0.688561354   0.013617889
C        0.092158585   0.936222415  -0.000563487
C        0.344063829   0.936222415  -0.000563487
C        0.596562852   0.946554138   0.022080606
C        0.849991285   0.946554138   0.022080606
O        0.446271039   0.392542079   0.168606902
O        0.371895382   0.243790766   0.178281298
H        0.498525929   0.273445063   0.173444097
K_POINTS automatic 
  4 4 1   0 0 0 

