 &CONTROL
                 calculation = 'bands' ,
                      outdir = './tmp/' ,
                  pseudo_dir = '/home/deleted/pseudo_psl' ,
                      prefix = 'GI_op' ,
                   verbosity = 'high' ,
               etot_conv_thr = 1.0D-5 ,
               forc_conv_thr = 4.0D-4 ,
                       nstep = 1000 ,
                    dipfield = .true. ,
 /
 &SYSTEM
                       ibrav = 4,
                           A = 9.88 ,
                           C = 15 ,
                         nat = 34,
                        ntyp = 4,
                     ecutwfc = 40.424239707 ,
                     ecutrho = 404.24239707 ,
                 occupations = 'tetrahedra' ,
                     degauss = 0.01 ,
				   input_dft = 'vdW-DF' ,
 /
 &ELECTRONS
            electron_maxstep = 50001,
                    conv_thr = 1.0D-6 ,
                 mixing_mode = 'local-TF' ,
                 mixing_beta = 0.5 ,
 /
ATOMIC_SPECIES
    C   12.01100  C.revpbe-n-kjpaw_psl.0.1.UPF 
    I  126.90400  I.revpbe-n-kjpaw_psl.0.2.UPF 
    O   15.99940  O.revpbe-n-kjpaw_psl.0.1.UPF 
    H   1.008000  H.revpbe-kjpaw_psl.0.1.UPF
ATOMIC_POSITIONS crystal 
C       -0.001602857   0.016899879  -0.010690173
C        0.244116583   0.006153899  -0.008196596
C        0.497833097   0.017815516  -0.000228083
C        0.758515922   0.031779584  -0.002856016
C        0.005183277   0.271702739  -0.012392600
C        0.083798922   0.183840009  -0.012117718
C        0.251531154   0.261784601  -0.012213823
C        0.325176171   0.168784459  -0.009958609
C        0.489836400   0.260316646  -0.009312228
C        0.579456525   0.183477788  -0.005587547
C        0.746893456   0.272509482  -0.007151229
C        0.837040931   0.192587470  -0.007878418
C       -0.001132395   0.517141319  -0.011318855
C        0.091792685   0.436348754  -0.013074957
C        0.268974378   0.515345619  -0.012130784
C        0.350944012   0.422647313  -0.012129440
C        0.552553333   0.423605057  -0.010791445
C        0.723043857   0.514891609  -0.010513259
C        0.822312080   0.435844779  -0.010164866
C       -0.012675583   0.762271064  -0.009257449
C        0.081106296   0.680554895  -0.009348495
C        0.254635699   0.759417834  -0.006336118
C        0.346212301   0.679264147  -0.006444012
C        0.525683939   0.772193636   0.013086271
I        0.554509024   0.477714918   0.231187546
C        0.734654348   0.776340361  -0.008004514
C        0.810870512   0.684606208  -0.009657980
C        0.075079031   0.926568384  -0.009724794
C        0.333549387   0.927792993  -0.003968702
C        0.591459403   0.942310547   0.011929242
C        0.831366392   0.939834341  -0.008040143
O        0.536965174   0.472789241   0.357775787
O        0.553335309   0.840707088   0.099092889
H        0.588440304   0.657320836   0.200275190
K_POINTS crystal_b 
4
0.0000000000    0.0000000000    0.0000000000 17
0.0000000000    0.5000000000    0.0000000000 10
0.3333333333    0.3333333333    0.0000000000 20
0.0000000000    0.0000000000    0.0000000000 1

