 &CONTROL
                 calculation = 'scf' ,
                      outdir = './tmp/' ,
                  pseudo_dir = '/home/deleted/pseudo_psl' ,
                      prefix = 'GBr_ip' ,
                   verbosity = 'high' ,
               etot_conv_thr = 1.0D-5 ,
               forc_conv_thr = 4.0D-4 ,
                       nstep = 1000 ,
                    dipfield = .true. ,
 /
 &SYSTEM
                       ibrav = 4,
                           A = 9.88 ,
                           C = 15 ,
                         nat = 34,
                        ntyp = 4,
                     ecutwfc = 40.424239707 ,
                     ecutrho = 404.24239707 ,
                 occupations = 'smearing' ,
                     degauss = 0.01 ,
				   input_dft = 'vdW-DF' ,
 /
 &ELECTRONS
            electron_maxstep = 50001,
                    conv_thr = 1.0D-6 ,
                 mixing_mode = 'local-TF' ,
                 mixing_beta = 0.5 ,
 /
ATOMIC_SPECIES
    C   12.01100  C.revpbe-n-kjpaw_psl.0.1.UPF 
   Br   79.90350  Br.revpbe-n-kjpaw_psl.0.2.UPF 
    O   15.99940  O.revpbe-n-kjpaw_psl.0.1.UPF 
    H   1.008000  H.revpbe-kjpaw_psl.0.1.UPF
ATOMIC_POSITIONS crystal 
C       -0.004128783   0.003239158  -0.002916614
C        0.248356085   0.009852674  -0.002008086
C        0.494171365   0.003019391  -0.004168308
C        0.742048025  -0.002639099  -0.007739786
C       -0.008119928   0.249935783  -0.001126229
C        0.077766217   0.170211119  -0.004718370
C        0.245588299   0.257649062  -0.010650571
C        0.331343365   0.175827168  -0.008615824
C        0.498855231   0.257485345  -0.007532876
C        0.579219376   0.169978763  -0.002518899
C        0.744849329   0.249815122   0.001491857
C        0.825069340   0.163339071  -0.001507619
C       -0.005179372   0.502502829   0.007653131
C        0.072301997   0.416567665   0.001613778
C        0.235307398   0.501668331  -0.006984171
C        0.313482602   0.421134340  -0.016099742
C        0.594203114   0.421269306  -0.008609720
C        0.752607529   0.501509836   0.002118516
C        0.831032127   0.416311605   0.006644273
C        0.001368276   0.756834939   0.006265746
C        0.078883834   0.670610413   0.007438561
C        0.242305358   0.756613437   0.001698653
C        0.320312493   0.671518279  -0.006494287
C        0.479091038   0.752091499  -0.014795046
Br       0.537633874   0.586468858  -0.032977991
C        0.759335425   0.751912830  -0.007262651
C        0.837565178   0.671537521   0.002367560
C        0.081629997   0.923309985   0.000932723
C        0.328515939   0.923227492  -0.001075353
C        0.574535295   0.915579973  -0.009545156
C        0.827938258   0.915738749  -0.006878932
O        0.589315619   0.718748072   0.172986780
O        0.507607055   0.566874487   0.132277149
H        0.685253247   0.723425891   0.194584241
K_POINTS automatic 
  16 16 1   0 0 0 

