 &CONTROL
                 calculation = 'nscf' ,
                      outdir = './tmp/' ,
                  pseudo_dir = '/home/deleted/pseudo_psl' ,
                      prefix = 'GF_op' ,
                   verbosity = 'high' ,
               etot_conv_thr = 1.0D-5 ,
               forc_conv_thr = 4.0D-4 ,
                       nstep = 1000 ,
                    dipfield = .true. ,
 /
 &SYSTEM
                       ibrav = 4,
                           A = 9.88 ,
                           C = 15 ,
                         nat = 34,
                        ntyp = 4,
                     ecutwfc = 40.424239707 ,
                     ecutrho = 404.24239707 ,
                 occupations = 'tetrahedra' ,
                     degauss = 0.01 ,
				   input_dft = 'vdW-DF' ,
    nspin = 2 ,
    starting_magnetization(1) = 0.5,
    starting_magnetization(2) = 0.5,
    starting_magnetization(3) = 0.5,
 /
 &ELECTRONS
            electron_maxstep = 50001,
                    conv_thr = 1.0D-6 ,
                 mixing_mode = 'local-TF' ,
                 mixing_beta = 0.5 ,
 /
ATOMIC_SPECIES
    C   12.01100  C.revpbe-n-kjpaw_psl.0.1.UPF 
    F   18.99800  F.revpbe-n-kjpaw_psl.0.1.UPF 
    O   15.99940  O.revpbe-n-kjpaw_psl.0.1.UPF 
    H   1.008000  H.revpbe-kjpaw_psl.0.1.UPF
ATOMIC_POSITIONS (crystal)
C        0.013119209   0.004618033  -0.008940878
C        0.261076587   0.002413397  -0.012808954
C        0.510989970   0.003951180  -0.003348693
C        0.762150129   0.005515058   0.005434724
C        0.012893220   0.253994239  -0.004402103
C        0.095557452   0.170555285  -0.006808171
C        0.261450437   0.251553028  -0.010940300
C        0.343320607   0.167221713  -0.014310147
C        0.509897733   0.251056665  -0.014294862
C        0.595185225   0.170073201  -0.009297574
C        0.761214307   0.254061161  -0.005709813
C        0.845138399   0.170552011  -0.001308889
C        0.011914563   0.503220192  -0.007274097
C        0.097603909   0.420325944  -0.002871848
C        0.266550431   0.503088985   0.002845866
C        0.345493906   0.415798247  -0.006708313
C        0.590422145   0.414928075  -0.016229441
C        0.756665105   0.502015325  -0.016066538
C        0.842987063   0.419998995  -0.010122021
C        0.012060428   0.753020506  -0.014811659
C        0.095379563   0.669319352  -0.011000783
C        0.262464373   0.753418575  -0.005318842
C        0.346006447   0.671469006   0.011026158
C        0.502921615   0.764412947   0.036933044
F        0.564548625   0.701144224   0.093873320
C        0.775214154   0.762507182  -0.017751617
C        0.843554002   0.670668943  -0.017543733
C        0.094233156   0.919365569  -0.013247829
C        0.344783692   0.919656082  -0.007501964
C        0.594595319   0.923508366   0.013825993
C        0.845742672   0.922028978  -0.005629113
O        0.506320262   0.493089214  -0.018878447
O        0.367951526   0.332667199   0.167843674
H        0.407237954   0.412587501   0.214513128
K_POINTS automatic 
  20 20 1   0 0 0 

