 &CONTROL
                 calculation = 'scf' ,
                      outdir = './tmp_subs/' ,
                  pseudo_dir = '/home/deleted/pseudo_psl' ,
                      prefix = 'GI_ip-subs' ,
                    dipfield = .true. ,
                   verbosity = 'high',
                       nstep = 1000,
               forc_conv_thr = 4.0D-4,
               etot_conv_thr = 1.0D-5
 /
 &SYSTEM
                       ibrav = 4,
                           A = 9.88 ,
                           C = 15 ,
                         nat = 30,
                        ntyp = 1,
                     ecutwfc = 40.424239707 ,
                     ecutrho = 404.24239707 ,
                 occupations = 'smearing' ,
                     degauss = 0.01 ,
				   input_dft = 'vdW-DF' ,
 /
 &ELECTRONS
            electron_maxstep = 50001,
                    conv_thr = 1.0D-6 ,
                 mixing_mode = 'local-TF' ,
                 mixing_beta = 0.5 ,
 /
ATOMIC_SPECIES
    C   12.01100  C.revpbe-n-kjpaw_psl.0.1.UPF 
ATOMIC_POSITIONS crystal 
C       -0.005167371  -0.003087468   0.000000000
C        0.229421032  -0.041157936   0.000000000
C        0.502079903  -0.003087468   0.000000000
C        0.747061377  -0.005877245   0.000000000
C       -0.009125094   0.249654947   0.000000000
C        0.067535080   0.165824797   0.000000000
C        0.222662706   0.283338647   0.000000000
C        0.560675941   0.283338647   0.000000000
C        0.598289716   0.165824797   0.000000000
C        0.758780042   0.249654947   0.000000000
C        0.830356256   0.160712513   0.000000000
C        0.000700085   0.501400171   0.000000000
C        0.077313244   0.417395936   0.000000000
C        0.240035515   0.506867155   0.000000000
C        0.325843322   0.435310557   0.000000000
C        0.609467234   0.435310557   0.000000000
C        0.766831640   0.506867155   0.000000000
C        0.840082691   0.417395936   0.000000000
C       -0.003404138   0.745209441   0.000000000
C        0.082704000   0.665408001   0.000000000
C        0.248613579   0.745209441   0.000000000
C        0.330356202   0.667519387   0.000000000
C        0.496654864   0.740246185   0.000000000
C        0.578323753   0.656647506   0.000000000
C        0.743591322   0.740246185   0.000000000
C        0.837163184   0.667519387   0.000000000
C        0.073552484   0.907049540   0.000000000
C        0.333497056   0.907049540   0.000000000
C        0.581465675   0.909813524   0.000000000
C        0.828347848   0.909813524   0.000000000
K_POINTS automatic 
  16 16 1   0 0 0 

