&BANDS
	prefix = 'GCl_op' ,
	outdir = './tmp/' ,
	filband = 'GCl_op-bands' ,
	plot_2d = .false. ,
/
