 &CONTROL
                 calculation = 'relax' ,
                      outdir = './tmp/' ,
                  pseudo_dir = '/home/deleted/pseudo_psl' ,
                      prefix = 'GCl_op' ,
                   verbosity = 'high' ,
               etot_conv_thr = 1.0D-5 ,
               forc_conv_thr = 4.0D-4 ,
                       nstep = 1000 ,
                    dipfield = .true. ,
 /
 &SYSTEM
                       ibrav = 4,
                           A = 9.88 ,
                           C = 15 ,
                         nat = 34,
                        ntyp = 4,
                     ecutwfc = 40.424239707 ,
                     ecutrho = 404.24239707 ,
                 occupations = 'smearing' ,
                     degauss = 0.01 ,
				   input_dft = 'vdW-DF' ,
 /
 &ELECTRONS
            electron_maxstep = 50001,
                    conv_thr = 1.0D-6 ,
                 mixing_mode = 'local-TF' ,
                 mixing_beta = 0.5 ,
 /
 &IONS
                ion_dynamics = 'bfgs' ,
 /
ATOMIC_SPECIES
    C   12.01100  C.revpbe-n-kjpaw_psl.0.1.UPF 
   Cl   35.45200  Cl.revpbe-n-kjpaw_psl.0.3.0.UPF 
    O   15.99940  O.revpbe-n-kjpaw_psl.0.1.UPF 
    H   1.008000  H.revpbe-kjpaw_psl.0.1.UPF
ATOMIC_POSITIONS crystal 
C       -0.002395590  -0.007558438  -0.006168925
C        0.242991226  -0.014017549  -0.014456507
C        0.494837151  -0.007558438  -0.006168925
C        0.748667159  -0.002665683   0.012177386
C       -0.001509107   0.242676481  -0.004904144
C        0.080809541   0.158812537  -0.009481600
C        0.248034472   0.238619315  -0.013472962
C        0.324578076   0.149156152  -0.015904601
C        0.490584843   0.238619315  -0.013472962
C        0.578002995   0.158812537  -0.009481600
C        0.744185588   0.242676481  -0.004904144
C        0.830435887   0.160871775   0.000114278
C       -0.004946650   0.490106701  -0.005550206
C        0.084572847   0.408212250  -0.005029016
C        0.258167846   0.488915267  -0.002705263
C        0.340177984   0.400739650  -0.008831358
C        0.560561665   0.400739650  -0.008831358
C        0.730747422   0.488915267  -0.002705263
C        0.823639402   0.408212250  -0.005029016
C       -0.007189642   0.738098085  -0.008196510
C        0.077546274   0.655092550  -0.010048567
C        0.245287727   0.738098085  -0.008196510
C        0.331612975   0.657020509   0.004091634
C        0.489561888   0.753531708   0.023796996
Cl       0.587489624   0.674979251   0.086583295
C        0.763969821   0.753531708   0.023796996
C        0.825407533   0.657020509   0.004091634
C        0.076099360   0.904387019  -0.010446851
C        0.328287658   0.904387019  -0.010446851
C        0.580675939   0.914628838   0.011525401
C        0.833952899   0.914628838   0.011525401
O        0.757954918   1.015909836   0.207195796
O        0.703866933   0.907733865   0.266200988
H        0.820353645   0.917100491   0.236698391
K_POINTS automatic 
  4 4 1   0 0 0 

