 &CONTROL
                 calculation = 'scf' ,
                      outdir = './tmp/' ,
                  pseudo_dir = '/home/deleted/pseudo_psl' ,
                      prefix = 'GF_op' ,
                   verbosity = 'high' ,
               etot_conv_thr = 1.0D-5 ,
               forc_conv_thr = 4.0D-4 ,
                       nstep = 1000 ,
                    dipfield = .true. ,
 /
 &SYSTEM
                       ibrav = 4,
                           A = 9.88 ,
                           C = 15 ,
                         nat = 34,
                        ntyp = 4,
                     ecutwfc = 40.424239707 ,
                     ecutrho = 404.24239707 ,
                 occupations = 'smearing' ,
                     degauss = 0.01 ,
				   input_dft = 'vdW-DF' ,
    nspin = 2 ,
    starting_magnetization(1) = 0.5,
    starting_magnetization(2) = 0.5,
    starting_magnetization(3) = 0.5,
 /
 &ELECTRONS
            electron_maxstep = 50001,
                    conv_thr = 1.0D-6 ,
                 mixing_mode = 'local-TF' ,
                 mixing_beta = 0.5 ,
 /
ATOMIC_SPECIES
    C   12.01100  C.revpbe-n-kjpaw_psl.0.1.UPF 
    F   18.99800  F.revpbe-n-kjpaw_psl.0.1.UPF 
    O   15.99940  O.revpbe-n-kjpaw_psl.0.1.UPF 
    H   1.008000  H.revpbe-kjpaw_psl.0.1.UPF
ATOMIC_POSITIONS (crystal)
C       -0.002950064  -0.040230130   0.009956606
C        0.242727553  -0.046055362   0.009704023
C        0.493661522  -0.044379078   0.006853792
C        0.748975844  -0.039080726   0.001248422
C        0.000145359   0.210603442  -0.003305066
C        0.081305674   0.125589804   0.000550990
C        0.248481029   0.206428691   0.001027601
C        0.324953802   0.118111616   0.008003142
C        0.490841334   0.209206276   0.011383541
C        0.580116111   0.125426645   0.034526149
C        0.748632830   0.211217140   0.003895137
C        0.831854127   0.128884305  -0.001454343
C       -0.002966284   0.457697157  -0.004074147
C        0.086378524   0.376083491  -0.006900880
C        0.261006174   0.457559877  -0.012174893
C        0.341224526   0.369660415  -0.004671910
C        0.560161215   0.367612431   0.005747526
C        0.734497330   0.459186339   0.008663963
C        0.825925322   0.375053148   0.000262675
C       -0.006544193   0.704146720   0.010578589
C        0.078832028   0.623537654   0.000387088
C        0.246883178   0.706551653  -0.003911372
C        0.333359994   0.626718012  -0.018653571
C        0.492473877   0.721770610  -0.035552021
F        0.567916618   0.655688577  -0.078130789
C        0.754052019   0.715584802   0.047722306
C        0.826282882   0.621825178   0.018898483
C        0.077264573   0.872557482   0.012271073
C        0.328854222   0.871819386   0.004021086
C        0.579048406   0.879433417  -0.009937639
C        0.830893804   0.881061990   0.015595459
O        0.644642794   0.663858324   0.101394481
O        0.582803284   1.130202015   0.134812724
H        0.619876784   1.060409098   0.155195170
K_POINTS automatic 
  16 16 1   0 0 0 

