 &CONTROL
                 calculation = 'nscf' ,
                      outdir = './tmp/' ,
                  pseudo_dir = '/home/deleted/pseudo_psl' ,
                      prefix = 'GCl_op' ,
                   verbosity = 'high' ,
               etot_conv_thr = 1.0D-5 ,
               forc_conv_thr = 4.0D-4 ,
                       nstep = 1000 ,
                    dipfield = .true. ,
 /
 &SYSTEM
                       ibrav = 4,
                           A = 9.88 ,
                           C = 15 ,
                         nat = 34,
                        ntyp = 4,
                     ecutwfc = 40.424239707 ,
                     ecutrho = 404.24239707 ,
                 occupations = 'tetrahedra' ,
                     degauss = 0.01 ,
				   input_dft = 'vdW-DF' ,
    nspin = 2 ,
    starting_magnetization(1) = 0.5,
    starting_magnetization(2) = 0.5,
    starting_magnetization(3) = 0.5,
 /
 &ELECTRONS
            electron_maxstep = 50001,
                    conv_thr = 1.0D-6 ,
                 mixing_mode = 'local-TF' ,
                 mixing_beta = 0.5 ,
 /
ATOMIC_SPECIES
    C   12.01100  C.revpbe-n-kjpaw_psl.0.1.UPF 
   Cl   35.45200  Cl.revpbe-n-kjpaw_psl.0.3.0.UPF 
    O   15.99940  O.revpbe-n-kjpaw_psl.0.1.UPF 
    H   1.008000  H.revpbe-kjpaw_psl.0.1.UPF
ATOMIC_POSITIONS (crystal)
C        0.005919501   0.018989638  -0.001813356
C        0.252023400   0.013332899  -0.009075807
C        0.503632103   0.018861539  -0.000265434
C        0.757255051   0.023683144   0.016592118
C        0.007450047   0.269623642  -0.000763370
C        0.089273714   0.185316739  -0.004921673
C        0.256550145   0.265704689  -0.009381986
C        0.333467917   0.176253888  -0.010940317
C        0.499734175   0.265462445  -0.009038959
C        0.586782305   0.185198676  -0.004344506
C        0.752902728   0.269627560  -0.000119736
C        0.838937729   0.187185653   0.005066616
C        0.004155107   0.517479818  -0.001749299
C        0.093534048   0.435117641  -0.001413978
C        0.266836242   0.516129167   0.000894561
C        0.347308375   0.427567220  -0.005923399
C        0.570619925   0.427446963  -0.005795074
C        0.739915968   0.516163772  -0.000110745
C        0.832384522   0.435092573  -0.001238191
C        0.001306185   0.765324850  -0.004254040
C        0.086524549   0.682201654  -0.005683736
C        0.254926897   0.765385499  -0.003378766
C        0.341447138   0.684557309   0.008767244
C        0.499082215   0.778804807   0.030683582
Cl       0.590298640   0.696009202   0.095554869
C        0.766186250   0.777483458   0.022956002
C        0.833327551   0.684975363   0.005802144
C        0.084827851   0.931352989  -0.005944684
C        0.337261278   0.931427927  -0.004873697
C        0.588759334   0.940110656   0.017385359
C        0.841572922   0.939613451   0.013859502
O        0.386636178   0.611222779   0.189530065
O        0.407614794   0.488271639   0.230383031
H        0.429144792   0.523987366   0.292249270
K_POINTS automatic 
  20 20 1   0 0 0 

