 &CONTROL
                 calculation = 'scf' ,
                      outdir = './tmp_subs/' ,
                  pseudo_dir = '/home/deleted/pseudo_psl' ,
                      prefix = 'GI_ip-subs' ,
                   verbosity = 'high' ,
               etot_conv_thr = 1.0D-5 ,
               forc_conv_thr = 4.0D-4 ,
                       nstep = 1000 ,
                    dipfield = .true. ,
 /
 &SYSTEM
                       ibrav = 4,
                           A = 9.88 ,
                           C = 15 ,
                         nat = 31,
                        ntyp = 2,
                     ecutwfc = 40.424239707 ,
                     ecutrho = 404.24239707 ,
                 occupations = 'smearing' ,
                     degauss = 0.01 ,
				   input_dft = 'vdW-DF' ,
    nspin = 2 ,
    starting_magnetization(1) = 0.5,
    starting_magnetization(2) = 0.5,
 /
 &ELECTRONS
            electron_maxstep = 50001,
                    conv_thr = 1.0D-6 ,
                 mixing_mode = 'local-TF' ,
                 mixing_beta = 0.5 ,
 /
ATOMIC_SPECIES
    C   12.01100  C.revpbe-n-kjpaw_psl.0.1.UPF 
    I  126.90400  I.revpbe-n-kjpaw_psl.0.2.UPF 
ATOMIC_POSITIONS (crystal)
C       -0.001571158   0.002683767   0.003259998
C        0.250944737   0.009734961   0.006836316
C        0.496489782   0.002686357   0.003234570
C        0.744403595  -0.003409938  -0.005894718
C       -0.006247378   0.248682349   0.009590278
C        0.079708807   0.169120740   0.003282610
C        0.246082648   0.255802548  -0.007222787
C        0.333740699   0.175252939  -0.005556696
C        0.501945769   0.255779772  -0.007084355
C        0.581658384   0.169131498   0.003449022
C        0.747155640   0.248725030   0.009766859
C        0.827130971   0.162081705   0.006729593
C       -0.003010001   0.501759092   0.022404499
C        0.074403582   0.415574258   0.015397490
C        0.235637506   0.500729333   0.000206719
C        0.311984330   0.418642020  -0.016399022
C        0.598816503   0.418642929  -0.016041961
C        0.757251580   0.500745634   0.000567880
C        0.833392256   0.415613104   0.015564011
C        0.003675687   0.756201768   0.015442344
C        0.081135113   0.670061692   0.022325889
C        0.244720067   0.756238541   0.015214747
C        0.320803215   0.671114448   0.000040212
C        0.479222343   0.753214943  -0.016717604
I        0.539101230   0.585823384  -0.056969833
C        0.766134391   0.753187965  -0.016355869
C        0.842421742   0.671082799   0.000436885
C        0.084315774   0.923078917   0.009679633
C        0.330970129   0.923128601   0.009524934
C        0.576186379   0.916057942  -0.007531400
C        0.832106894   0.916067094  -0.007473208
K_POINTS automatic 
  16 16 1   0 0 0 

