 &CONTROL
                 calculation = 'bands' ,
                      outdir = './tmp/' ,
                  pseudo_dir = '/home/deleted/pseudo_psl' ,
                      prefix = 'GF_ip' ,
                   verbosity = 'high' ,
               etot_conv_thr = 1.0D-5 ,
               forc_conv_thr = 4.0D-4 ,
                       nstep = 1000 ,
                    dipfield = .true. ,
 /
 &SYSTEM
                       ibrav = 4,
                           A = 9.88 ,
                           C = 15 ,
                         nat = 31,
                        ntyp = 2,
                     ecutwfc = 40.424239707 ,
                     ecutrho = 404.24239707 ,
                 occupations = 'tetrahedra' ,
                     degauss = 0.01 ,
				   input_dft = 'vdW-DF' ,
    nspin = 2 ,
    starting_magnetization(1) = 0.5,
    starting_magnetization(2) = 0.5,
 /
 &ELECTRONS
            electron_maxstep = 50001,
                    conv_thr = 1.0D-6 ,
                 mixing_mode = 'local-TF' ,
                 mixing_beta = 0.5 ,
 /
ATOMIC_SPECIES
    C   12.01100  C.revpbe-n-kjpaw_psl.0.1.UPF 
    F   18.99800  F.revpbe-n-kjpaw_psl.0.1.UPF 
ATOMIC_POSITIONS (crystal)
C        0.003015746   0.001559561   0.000000000
C        0.246376364  -0.007247272   0.000000000
C        0.498543815   0.001559561   0.000000000
C        0.753645326   0.007290653   0.000000000
C        0.003845761   0.252208780   0.000000000
C        0.086001740   0.167683426   0.000000000
C        0.252780011   0.245815645   0.000000000
C        0.327731457   0.155462914   0.000000000
C        0.493035634   0.245815645   0.000000000
C        0.581681686   0.167683426   0.000000000
C        0.748363020   0.252208780   0.000000000
C        0.835809937   0.171619876   0.000000000
C       -0.000786527   0.498426947   0.000000000
C        0.090563439   0.417454467   0.000000000
C        0.265060564   0.496668016   0.000000000
C        0.349002810   0.407855370   0.000000000
C        0.558852559   0.407855370   0.000000000
C        0.731607452   0.496668016   0.000000000
C        0.826891027   0.417454467   0.000000000
C       -0.003575874   0.745844931   0.000000000
C        0.081756314   0.663512629   0.000000000
C        0.249420805   0.745844931   0.000000000
C        0.337409323   0.664139788   0.000000000
C        0.496715373   0.764520791   0.000000000
F        0.589081229   0.678162460   0.000000000
C        0.767805419   0.764520791   0.000000000
C        0.826730463   0.664139788   0.000000000
C        0.079920390   0.911991452   0.000000000
C        0.332071061   0.911991452   0.000000000
C        0.587362118   0.923977006   0.000000000
C        0.836614888   0.923977006   0.000000000
K_POINTS automatic 
  20 20 1   0 0 0 

