&PROJWFC
  outdir = './tmp',
  prefix = 'Cl',
  filpdos = 'Cl-pdos',
  ngauss = 1,
  degauss = 0.01,
  DeltaE = 0.01,
  lsym = .true.
/
