 &CONTROL
                 calculation = 'scf' ,
                      outdir = './tmp_subs/' ,
                  pseudo_dir = '/home/deleted/pseudo_psl' ,
                      prefix = 'GCl_ip-subs' ,
                   verbosity = 'high' ,
               etot_conv_thr = 1.0D-5 ,
               forc_conv_thr = 4.0D-4 ,
                       nstep = 1000 ,
                    dipfield = .true. ,
 /
 &SYSTEM
                       ibrav = 4,
                           A = 9.88 ,
                           C = 15 ,
                         nat = 31,
                        ntyp = 2,
                     ecutwfc = 40.424239707 ,
                     ecutrho = 404.24239707 ,
                 occupations = 'smearing' ,
                     degauss = 0.01 ,
				   input_dft = 'vdW-DF' ,
    nspin = 2 ,
    starting_magnetization(1) = 0.5,
    starting_magnetization(2) = 0.5,
 /
 &ELECTRONS
            electron_maxstep = 50001,
                    conv_thr = 1.0D-6 ,
                 mixing_mode = 'local-TF' ,
                 mixing_beta = 0.5 ,
 /
ATOMIC_SPECIES
    C   12.01100  C.revpbe-n-kjpaw_psl.0.1.UPF 
   Cl   35.45200  Cl.revpbe-n-kjpaw_psl.0.3.0.UPF 
ATOMIC_POSITIONS (crystal)
C        0.001681494   0.002498788  -0.002174965
C        0.254136319   0.008535658  -0.002579885
C        0.500513437   0.002490741  -0.003587948
C        0.748480806  -0.002613361  -0.003157245
C       -0.001535885   0.249908852  -0.003259857
C        0.084122980   0.169755953  -0.003227118
C        0.252527996   0.257415558  -0.003825380
C        0.337235482   0.174803487  -0.002619395
C        0.504530469   0.257421586  -0.001666672
C        0.585284986   0.169751252  -0.001962009
C        0.751075308   0.249919480  -0.001606014
C        0.831630333   0.163647095  -0.002486776
C        0.000886755   0.502136766  -0.002492898
C        0.079108813   0.416436475  -0.004262924
C        0.243425301   0.501387753  -0.006543173
C        0.323534182   0.421839701  -0.006048257
C        0.597840153   0.421856546  -0.000434398
C        0.757498847   0.501367754   0.000113417
C        0.836954541   0.416441567  -0.000827356
C        0.006626415   0.755789544  -0.001113732
C        0.084907385   0.670124522  -0.002619551
C        0.248833040   0.755807194  -0.004713693
C        0.328182272   0.670875642  -0.007227854
C        0.487830302   0.750490915  -0.007676271
Cl       0.542930486   0.586574818  -0.004102069
C        0.762162359   0.750465745  -0.001177922
C        0.842240352   0.670864845  -0.000143031
C        0.087299594   0.922305006  -0.001923162
C        0.334721071   0.922310334  -0.003637196
C        0.581212124   0.914818090  -0.004838772
C        0.833267957   0.914874854  -0.002193505
K_POINTS automatic 
  16 16 1   0 0 0 

