 &CONTROL
                 calculation = 'nscf' ,
                      outdir = './tmp/' ,
                  pseudo_dir = '/home/deleted/pseudo_psl' ,
                      prefix = 'GCl_ip' ,
                   verbosity = 'high' ,
               etot_conv_thr = 1.0D-5 ,
               forc_conv_thr = 4.0D-4 ,
                       nstep = 1000 ,
                    dipfield = .true. ,
 /
 &SYSTEM
                       ibrav = 4,
                           A = 9.88 ,
                           C = 15 ,
                         nat = 34,
                        ntyp = 4,
                     ecutwfc = 40.424239707 ,
                     ecutrho = 404.24239707 ,
                 occupations = 'tetrahedra' ,
                     degauss = 0.01 ,
				   input_dft = 'vdW-DF' ,
    nspin = 2 ,
    starting_magnetization(1) = 0.5,
    starting_magnetization(2) = 0.5,
    starting_magnetization(3) = 0.5,
 /
 &ELECTRONS
            electron_maxstep = 50001,
                    conv_thr = 1.0D-6 ,
                 mixing_mode = 'local-TF' ,
                 mixing_beta = 0.5 ,
 /
ATOMIC_SPECIES
    C   12.01100  C.revpbe-n-kjpaw_psl.0.1.UPF 
   Cl   35.45200  Cl.revpbe-n-kjpaw_psl.0.3.0.UPF 
    O   15.99940  O.revpbe-n-kjpaw_psl.0.1.UPF 
    H   1.008000  H.revpbe-kjpaw_psl.0.1.UPF
ATOMIC_POSITIONS (crystal)
C        0.002739513   0.001171703  -0.001897653
C        0.255297127   0.007446267  -0.001674710
C        0.501555237   0.001075569  -0.001930292
C        0.749547503  -0.004063373  -0.002473552
C       -0.000416027   0.248605042  -0.000631573
C        0.085363507   0.168621533  -0.001644343
C        0.253967009   0.256483993  -0.003043433
C        0.338486859   0.173776455  -0.003297339
C        0.505679586   0.256382272  -0.003992226
C        0.586403772   0.168537504  -0.002363092
C        0.752180334   0.248586596  -0.001273940
C        0.832713966   0.162264546  -0.001054840
C        0.001976879   0.500835283   0.000421847
C        0.080219204   0.415120608   0.000134018
C        0.244575481   0.500178632  -0.001479331
C        0.324874264   0.421071790  -0.004032376
C        0.599310482   0.420935473  -0.005808532
C        0.758720036   0.500150692  -0.003339917
C        0.838026846   0.415121272  -0.000895336
C        0.007755754   0.754571480  -0.000869401
C        0.085972227   0.668850191   0.000266164
C        0.249930663   0.754566140  -0.000183134
C        0.329225734   0.669509794  -0.001514171
C        0.488636243   0.748595106  -0.003651608
Cl       0.543861520   0.584825361  -0.007537932
C        0.763154603   0.748731659  -0.004798780
C        0.843400250   0.669528802  -0.002983066
C        0.088443849   0.921115050  -0.001352784
C        0.335797034   0.921087851  -0.001184781
C        0.582300792   0.913197615  -0.002695473
C        0.834137536   0.913311897  -0.002992792
O        0.549938396   0.599507915   0.205998191
O        0.509603306   0.442462979   0.208220274
H        0.548088682   0.431288645   0.266680187
K_POINTS automatic 
  20 20 1   0 0 0 

