 &CONTROL
                 calculation = 'bands' ,
                      outdir = './tmp/' ,
                  pseudo_dir = '/home/deleted/pseudo_psl' ,
                      prefix = 'GBr_ip' ,
                   verbosity = 'high' ,
               etot_conv_thr = 1.0D-5 ,
               forc_conv_thr = 4.0D-4 ,
                       nstep = 1000 ,
                    dipfield = .true. ,
 /
 &SYSTEM
                       ibrav = 4,
                           A = 9.88 ,
                           C = 15 ,
                         nat = 33,
                        ntyp = 3,
                     ecutwfc = 40.424239707 ,
                     ecutrho = 404.24239707 ,
                 occupations = 'tetrahedra' ,
                     degauss = 0.01 ,
				   input_dft = 'vdW-DF' ,
    nspin = 2 ,
    starting_magnetization(1) = 0.5,
    starting_magnetization(2) = 0.5,
    starting_magnetization(3) = 0.5,
 /
 &ELECTRONS
            electron_maxstep = 50001,
                    conv_thr = 1.0D-6 ,
                 mixing_mode = 'local-TF' ,
                 mixing_beta = 0.5 ,
 /
ATOMIC_SPECIES
    C   12.01100  C.revpbe-n-kjpaw_psl.0.1.UPF 
   Br   79.90350  Br.revpbe-n-kjpaw_psl.0.2.UPF 
    O   15.99940  O.revpbe-n-kjpaw_psl.0.1.UPF 
ATOMIC_POSITIONS (crystal)
C        0.007454309   0.013237456   0.002442459
C        0.259939965   0.019879929   0.005784683
C        0.505783148   0.013237456   0.002442459
C        0.753993253   0.007986506  -0.004176064
C        0.003629238   0.260194853   0.008303504
C        0.089314518   0.180334109   0.002648954
C        0.256914616   0.267279648  -0.005567551
C        0.342782967   0.185565934  -0.004169030
C        0.510365033   0.267279648  -0.005567551
C        0.591019591   0.180334109   0.002648954
C        0.756565616   0.260194853   0.008303504
C        0.836821662   0.173643324   0.006140126
C        0.006379984   0.512759970   0.019277708
C        0.084303340   0.426893901   0.013560422
C        0.247129204   0.511797422   0.001267461
C        0.323447046   0.430421149  -0.013836937
C        0.606974101   0.430421149  -0.013836937
C        0.764668218   0.511797422   0.001267461
C        0.842590560   0.426893901   0.013560422
C        0.012521948   0.766704810   0.013196506
C        0.090423166   0.680846334   0.019088130
C        0.254182864   0.766704810   0.013196506
C        0.332140523   0.681837544   0.001006128
C        0.489748665   0.763222050  -0.014373497
Br       0.548300375   0.596600752  -0.039753109
C        0.773473385   0.763222050  -0.014373497
C        0.849697020   0.681837544   0.001006128
C        0.093158782   0.933365656   0.007882985
C        0.340206874   0.933365656   0.007882985
C        0.586423285   0.926307270  -0.005835631
C        0.839883984   0.926307270  -0.005835631
O        0.619205028   0.738410055   0.196731484
O        0.547224396   0.594448791   0.179686462
K_POINTS automatic 
  20 20 1   0 0 0 

