 &CONTROL
                 calculation = 'scf' ,
                      outdir = './tmp_subs/' ,
                  pseudo_dir = '/home/deleted/pseudo_psl' ,
                      prefix = 'GF_ip-subs' ,
                   verbosity = 'high' ,
               etot_conv_thr = 1.0D-5 ,
               forc_conv_thr = 4.0D-4 ,
                       nstep = 1000 ,
                    dipfield = .true. ,
 /
 &SYSTEM
                       ibrav = 4,
                           A = 9.88 ,
                           C = 15 ,
                         nat = 31,
                        ntyp = 2,
                     ecutwfc = 40.424239707 ,
                     ecutrho = 404.24239707 ,
                 occupations = 'smearing' ,
                     degauss = 0.01 ,
				   input_dft = 'vdW-DF' ,
    nspin = 2 ,
    starting_magnetization(1) = 0.5,
    starting_magnetization(2) = 0.5,
 /
 &ELECTRONS
            electron_maxstep = 50001,
                    conv_thr = 1.0D-6 ,
                 mixing_mode = 'local-TF' ,
                 mixing_beta = 0.5 ,
 /
ATOMIC_SPECIES
    C   12.01100  C.revpbe-n-kjpaw_psl.0.1.UPF 
    F   18.99800  F.revpbe-n-kjpaw_psl.0.1.UPF 
ATOMIC_POSITIONS (crystal)
C       -0.000058944  -0.004171054  -0.001949559
C        0.243792174  -0.012415652  -0.004638195
C        0.495887890  -0.004171054  -0.001949559
C        0.750806040   0.001612079   0.004230450
C        0.000978539   0.246586102  -0.001034751
C        0.082984832   0.162061166  -0.002727312
C        0.249763568   0.240428168  -0.004376359
C        0.325178713   0.150357427  -0.005046430
C        0.490664600   0.240428168  -0.004376359
C        0.579076332   0.162061166  -0.002727312
C        0.745607561   0.246586102  -0.001034751
C        0.832881935   0.165763869   0.000960308
C       -0.003484256   0.493031489  -0.001893200
C        0.087465499   0.411832553  -0.001690089
C        0.261825231   0.490994650  -0.001783807
C        0.344601676   0.402474943  -0.003434806
C        0.557873265   0.402474943  -0.003434806
C        0.729169419   0.490994650  -0.001783807
C        0.824367053   0.411832553  -0.001690089
C       -0.006461418   0.740504007  -0.002961435
C        0.079044061   0.658088124  -0.003276663
C        0.246965424   0.740504007  -0.002961435
C        0.335112383   0.658800900  -0.000351211
C        0.494262573   0.758391403   0.003829038
F        0.587542547   0.675085095   0.021015695
C        0.764128830   0.758391403   0.003829038
C        0.823688516   0.658800900  -0.000351211
C        0.077149232   0.906631589  -0.003486135
C        0.329482356   0.906631589  -0.003486135
C        0.584427753   0.918183961   0.003035992
C        0.833756208   0.918183961   0.003035992
K_POINTS automatic 
  16 16 1   0 0 0 

