 &CONTROL
                 calculation = 'nscf' ,
                      outdir = './tmp/' ,
                  pseudo_dir = '/home/deleted/pseudo_psl' ,
                      prefix = 'GF_op' ,
                   verbosity = 'high' ,
               etot_conv_thr = 1.0D-5 ,
               forc_conv_thr = 4.0D-4 ,
                       nstep = 1000 ,
                    dipfield = .true. ,
 /
 &SYSTEM
                       ibrav = 4,
                           A = 9.88 ,
                           C = 15 ,
                         nat = 34,
                        ntyp = 4,
                     ecutwfc = 40.424239707 ,
                     ecutrho = 404.24239707 ,
                 occupations = 'tetrahedra' ,
                     degauss = 0.01 ,
				   input_dft = 'vdW-DF' ,
    nspin = 2 ,
    starting_magnetization(1) = 0.5,
    starting_magnetization(2) = 0.5,
    starting_magnetization(3) = 0.5,
 /
 &ELECTRONS
            electron_maxstep = 50001,
                    conv_thr = 1.0D-6 ,
                 mixing_mode = 'local-TF' ,
                 mixing_beta = 0.5 ,
 /
ATOMIC_SPECIES
    C   12.01100  C.revpbe-n-kjpaw_psl.0.1.UPF 
    F   18.99800  F.revpbe-n-kjpaw_psl.0.1.UPF 
    O   15.99940  O.revpbe-n-kjpaw_psl.0.1.UPF 
    H   1.008000  H.revpbe-kjpaw_psl.0.1.UPF
ATOMIC_POSITIONS (crystal)
C        0.001728193   0.000390747   0.000426511
C        0.245758264  -0.007647314  -0.001022211
C        0.497665601   0.000319232  -0.000690268
C        0.752416796   0.005944399   0.003180227
C        0.002761968   0.251125967   0.001315302
C        0.084707596   0.166595281   0.000316463
C        0.251474713   0.245027584  -0.000319729
C        0.327095544   0.155130303  -0.000766258
C        0.492616059   0.244970002  -0.000376782
C        0.580899926   0.166472618  -0.000006815
C        0.747387522   0.251038846   0.001137680
C        0.834558035   0.170066926   0.002063643
C       -0.001549413   0.497733305   0.000602132
C        0.089172465   0.416388753   0.000911387
C        0.263507887   0.495808590   0.000478663
C        0.345638242   0.407062328   0.000086171
C        0.560388724   0.406966371   0.000259401
C        0.731348781   0.495644614   0.001130133
C        0.826355344   0.416315893   0.001027136
C       -0.004418786   0.745272055  -0.000248948
C        0.081001412   0.662813213  -0.000773968
C        0.248894716   0.745343644  -0.001421235
C        0.336966427   0.663726773  -0.000381573
C        0.495939174   0.763182010   0.000365105
F        0.588938123   0.678704576   0.014377235
C        0.765634198   0.762875815   0.003745523
C        0.825771342   0.663658381   0.001646476
C        0.079112948   0.911368885  -0.000455762
C        0.331353160   0.911296716  -0.001245550
C        0.586150487   0.922674792   0.001253479
C        0.835473426   0.922683236   0.002968649
O        0.550601441   0.726851920   0.204080000
O        0.441036492   0.779318732   0.205519672
H        0.538881452   0.680120696   0.263334014
K_POINTS automatic 
  20 20 1   0 0 0 

