&INPUTPP
          outdir = './tmp/'
          prefix = 'B1_opD'
          filplot = 'B1_opD-chg-dn'
          plot_num = 0,
          spin_component = 2
/
&PLOT
          nfile = 1
          filepp(1) = 'B1_opD-chg-dn'
          weight(1) = 1.0,
          fileout = 'B1_opD-chg-dn.xsf'
          iflag = 3
          output_format = 5
/
