 &BANDS
                      prefix = 'I2' ,
                      outdir = './tmp/' ,
                     filband = 'I2-bands' ,
                     plot_2d = .false. ,
 /
