 &CONTROL
                 calculation = 'nscf' ,
                      outdir = './tmp/' ,
                  pseudo_dir = '/home/deleted/pseudo_psl' ,
                      prefix = 'MVG_tx' ,
                    dipfield = .true. ,
                   verbosity = 'high',
                       nstep = 1000,
               forc_conv_thr = 4.0D-4,
               etot_conv_thr = 1.0D-5
 /
 &SYSTEM
                       ibrav = 4,
                           A = 9.88 ,
                           C = 15 ,
                         nat = 33,
                        ntyp = 2,
                     ecutwfc = 40.424239707 ,
                     ecutrho = 404.24239707 ,
                 occupations = 'tetrahedra' ,
                     degauss = 0.01 ,
				   input_dft = 'vdW-DF' ,
    nspin = 2 ,
    starting_magnetization(1) = 0.5,
	starting_magnetization(2) = 0.5,
 /
 &ELECTRONS
            electron_maxstep = 50001,
                    conv_thr = 1.0D-6 ,
                 mixing_mode = 'local-TF' ,
                 mixing_beta = 0.5 ,
 /
 &IONS
                ion_dynamics = 'bfgs' ,
 /
ATOMIC_SPECIES
    C   12.01100  C.revpbe-n-kjpaw_psl.0.1.UPF 
    O   15.99940  O.revpbe-n-kjpaw_psl.0.1.UPF 
ATOMIC_POSITIONS crystal 
C        0.001673645   0.001872040  -0.006960700
C        0.248675682  -0.002648637  -0.005638563
C        0.500198396   0.001872040  -0.006960700
C        0.752268968   0.004537935  -0.009965410
C        0.002906967   0.252690740  -0.002863231
C        0.085384161   0.168659196  -0.004369467
C        0.253361419   0.250135914  -0.003242747
C        0.330690367   0.161380733  -0.004056983
C        0.496774495   0.250135914  -0.003242747
C        0.583275034   0.168659196  -0.004369467
C        0.749783774   0.252690740  -0.002863231
C        0.835342863   0.170685728  -0.004769862
C        0.000497019   0.500994038  -0.002077018
C        0.088452859   0.418524148  -0.001565629
C        0.260845914   0.501183887  -0.002158847
C        0.341131019   0.412689711   0.000955120
C        0.571558691   0.412689711   0.000955120
C        0.740337973   0.501183887  -0.002158847
C        0.830071288   0.418524148  -0.001565629
C       -0.002344456   0.748660500  -0.005703027
C        0.083177748   0.666355496  -0.003144330
C        0.251004957   0.748660500  -0.005703027
C        0.336254760   0.667617734  -0.008693635
C        0.502758353   0.753844325  -0.017485233
C        0.591512952   0.683025905  -0.032105984
C        0.751085972   0.753844325  -0.017485233
C        0.831362974   0.667617734  -0.008693635
C        0.081867686   0.915536073  -0.006638885
C        0.333668386   0.915536073  -0.006638885
C        0.585734095   0.921237595  -0.011152770
C        0.835503498   0.921237595  -0.011152770
O        0.637733826   0.649673548   0.200758126
O        0.511939721   0.649673548   0.200758126
K_POINTS automatic 
  20 20 1   0 0 0 

