 &CONTROL
                 calculation = 'bands' ,
                      outdir = './tmp/' ,
                  pseudo_dir = '/home/deleted/pseudo_psl' ,
                      prefix = 'GBr_ip' ,
                   verbosity = 'high' ,
               etot_conv_thr = 1.0D-5 ,
               forc_conv_thr = 4.0D-4 ,
                       nstep = 1000 ,
                    dipfield = .true. ,
 /
 &SYSTEM
                       ibrav = 4,
                           A = 9.88 ,
                           C = 15 ,
                         nat = 32,
                        ntyp = 3,
                     ecutwfc = 40.424239707 ,
                     ecutrho = 404.24239707 ,
                 occupations = 'tetrahedra' ,
                     degauss = 0.01 ,
				   input_dft = 'vdW-DF' ,
 /
 &ELECTRONS
            electron_maxstep = 50001,
                    conv_thr = 1.0D-6 ,
                 mixing_mode = 'local-TF' ,
                 mixing_beta = 0.5 ,
 /
ATOMIC_SPECIES
    C   12.01100  C.revpbe-n-kjpaw_psl.0.1.UPF 
   Br   79.90350  Br.revpbe-n-kjpaw_psl.0.2.UPF 
    O   15.99940  O.revpbe-n-kjpaw_psl.0.1.UPF 
ATOMIC_POSITIONS crystal 
C       -0.001942667   0.002278612  -0.002830917
C        0.250758106   0.009366074  -0.005835463
C        0.496447022   0.002283530  -0.002527038
C        0.744365768  -0.003482398   0.002471084
C       -0.005835688   0.249136675  -0.007838386
C        0.080077839   0.169585587  -0.002663115
C        0.248112113   0.257210937   0.004220160
C        0.333726261   0.175319588   0.002887628
C        0.501223577   0.257135377   0.004101901
C        0.581717080   0.169573073  -0.002646631
C        0.747167945   0.249155303  -0.007927166
C        0.827329598   0.162472544  -0.006206718
C       -0.002845632   0.502121516  -0.018276075
C        0.074848937   0.416030693  -0.012596377
C        0.237085263   0.501068337  -0.001194966
C        0.315023064   0.420629827   0.012463356
C        0.597714680   0.420557335   0.012170785
C        0.756030031   0.501017837  -0.001682343
C        0.833322311   0.416025930  -0.012910258
C        0.003206216   0.755798820  -0.012725935
C        0.080976568   0.669769834  -0.018122281
C        0.244745999   0.755859452  -0.012393128
C        0.321968870   0.670819283  -0.001204197
C        0.480416393   0.751269823   0.012234110
Br       0.539106771   0.586003271   0.030002227
C        0.763043261   0.751282453   0.012045057
C        0.840900831   0.670764378  -0.001653645
C        0.083935002   0.922688591  -0.007775717
C        0.330967801   0.922747661  -0.007500170
C        0.576893721   0.914661104   0.003969794
C        0.830005808   0.914679741   0.003762105
O        0.539507145   0.586169214   0.146182318
K_POINTS crystal_b 
4
0.0000000000    0.0000000000    0.0000000000 17
0.0000000000    0.5000000000    0.0000000000 10
0.3333333333    0.3333333333    0.0000000000 20
0.0000000000    0.0000000000    0.0000000000 1

