 &CONTROL
                 calculation = 'nscf' ,
                      outdir = './tmp/' ,
                  pseudo_dir = '/home/deleted/pseudo_psl' ,
                      prefix = 'GF_op' ,
                   verbosity = 'high' ,
               etot_conv_thr = 1.0D-5 ,
               forc_conv_thr = 4.0D-4 ,
                       nstep = 1000 ,
                    dipfield = .true. ,
 /
 &SYSTEM
                       ibrav = 4,
                           A = 9.88 ,
                           C = 15 ,
                         nat = 34,
                        ntyp = 4,
                     ecutwfc = 40.424239707 ,
                     ecutrho = 404.24239707 ,
                 occupations = 'tetrahedra' ,
                     degauss = 0.01 ,
				   input_dft = 'vdW-DF' ,
    nspin = 2 ,
    starting_magnetization(1) = 0.5,
    starting_magnetization(2) = 0.5,
    starting_magnetization(3) = 0.5,
 /
 &ELECTRONS
            electron_maxstep = 50001,
                    conv_thr = 1.0D-6 ,
                 mixing_mode = 'local-TF' ,
                 mixing_beta = 0.5 ,
 /
ATOMIC_SPECIES
    C   12.01100  C.revpbe-n-kjpaw_psl.0.1.UPF 
    F   18.99800  F.revpbe-n-kjpaw_psl.0.1.UPF 
    O   15.99940  O.revpbe-n-kjpaw_psl.0.1.UPF 
    H   1.008000  H.revpbe-kjpaw_psl.0.1.UPF
ATOMIC_POSITIONS (crystal)
C       -0.035504333  -0.021310738   0.015285195
C        0.214102019  -0.022761374   0.017290991
C        0.465613889  -0.017022841   0.018047777
C        0.714738557  -0.016006148   0.010262275
C       -0.034787190   0.234425508   0.011212117
C        0.047666304   0.148921615   0.042571505
C        0.221028233   0.232573402   0.019280164
C        0.296065382   0.141490366   0.015730491
C        0.460955616   0.229701419   0.008590820
C        0.547206036   0.148729996   0.008276130
C        0.713371520   0.233627534   0.004111792
C        0.799829230   0.151873656   0.006594011
C       -0.036422643   0.480846952   0.002773470
C        0.052001342   0.398096119   0.007195558
C        0.227615739   0.482439903   0.015671616
C        0.310234639   0.390990119   0.012948157
C        0.531558859   0.392862286   0.002597556
C        0.699634628   0.480687835  -0.004925427
C        0.792701680   0.399117313   0.000158422
C       -0.037517246   0.729682168   0.003553280
C        0.047567642   0.646700126   0.007419646
C        0.213523905   0.727332377   0.017876543
C        0.298296068   0.645042868   0.026271808
C        0.463922621   0.738468563   0.055972607
F        0.590311539   0.679005338  -0.069420777
C        0.731913688   0.745036037  -0.026962737
C        0.796285496   0.649877066  -0.010983528
C        0.045642221   0.895081684   0.011753534
C        0.298164558   0.895783870   0.019914381
C        0.553020309   0.904258175   0.024337299
C        0.802785734   0.902264348  -0.000794950
O        0.520500242   0.685681745   0.109622431
O        1.033812754   1.153769855   0.142107669
H        1.087432408   1.102717736   0.168117598
K_POINTS automatic 
  20 20 1   0 0 0 

