 &CONTROL
                 calculation = 'scf' ,
                      outdir = './tmp/' ,
                  pseudo_dir = '/home/deleted/pseudo_psl' ,
                      prefix = 'GCl_op' ,
                   verbosity = 'high' ,
               etot_conv_thr = 1.0D-5 ,
               forc_conv_thr = 4.0D-4 ,
                       nstep = 1000 ,
                    dipfield = .true. ,
 /
 &SYSTEM
                       ibrav = 4,
                           A = 9.88 ,
                           C = 15 ,
                         nat = 34,
                        ntyp = 4,
                     ecutwfc = 40.424239707 ,
                     ecutrho = 404.24239707 ,
                 occupations = 'smearing' ,
                     degauss = 0.01 ,
				   input_dft = 'vdW-DF' ,
 /
 &ELECTRONS
            electron_maxstep = 50001,
                    conv_thr = 1.0D-6 ,
                 mixing_mode = 'local-TF' ,
                 mixing_beta = 0.5 ,
 /
ATOMIC_SPECIES
    C   12.01100  C.revpbe-n-kjpaw_psl.0.1.UPF 
   Cl   35.45200  Cl.revpbe-n-kjpaw_psl.0.3.0.UPF 
    O   15.99940  O.revpbe-n-kjpaw_psl.0.1.UPF 
    H   1.008000  H.revpbe-kjpaw_psl.0.1.UPF
ATOMIC_POSITIONS crystal 
C        0.005443256   0.005729304  -0.007651061
C        0.251519559  -0.000036917  -0.014303487
C        0.503129750   0.005534652  -0.005790070
C        0.756871200   0.010443507   0.010531079
C        0.007099588   0.256424992  -0.006373922
C        0.088967955   0.172132588  -0.010540926
C        0.256276012   0.252540596  -0.014803294
C        0.333030198   0.162975936  -0.016267459
C        0.499223310   0.252157602  -0.014274271
C        0.586313156   0.171892794  -0.009835950
C        0.752514531   0.256379194  -0.005660748
C        0.838627255   0.174051181  -0.000680724
C        0.003747886   0.504166961  -0.007008489
C        0.093239736   0.421942713  -0.006658045
C        0.266710769   0.503064945  -0.004282889
C        0.347440399   0.414477209  -0.010986989
C        0.569894664   0.414287958  -0.011090641
C        0.739405820   0.502925830  -0.005870303
C        0.831914087   0.421788350  -0.006714783
C        0.000816271   0.751985989  -0.009553578
C        0.086181361   0.668974141  -0.010807045
C        0.254537655   0.752044676  -0.008531251
C        0.341031705   0.671225932   0.003759934
C        0.498629487   0.765811648   0.026127325
Cl       0.590402036   0.684455740   0.091991547
C        0.764520722   0.763720672   0.015266588
C        0.832667839   0.671570959  -0.000340097
C        0.084343649   0.918042395  -0.011383056
C        0.336792426   0.918156504  -0.010042902
C        0.588444100   0.926832102   0.011858792
C        0.840803540   0.926168776   0.007325997
O        0.406536709   0.619167610   0.195248667
O        0.329471940   0.448416968   0.200547459
H        0.359619342   0.434955100   0.260557436
K_POINTS automatic 
  16 16 1   0 0 0 

