 &CONTROL
                 calculation = 'bands' ,
                      outdir = './tmp/' ,
                  pseudo_dir = '/home/deleted/pseudo_psl' ,
                      prefix = 'GBr_ip' ,
                   verbosity = 'high' ,
               etot_conv_thr = 1.0D-5 ,
               forc_conv_thr = 4.0D-4 ,
                       nstep = 1000 ,
                    dipfield = .true. ,
 /
 &SYSTEM
                       ibrav = 4,
                           A = 9.88 ,
                           C = 15 ,
                         nat = 32,
                        ntyp = 3,
                     ecutwfc = 40.424239707 ,
                     ecutrho = 404.24239707 ,
                 occupations = 'tetrahedra' ,
                     degauss = 0.01 ,
				   input_dft = 'vdW-DF' ,
    nspin = 2 ,
    starting_magnetization(1) = 0.5,
    starting_magnetization(2) = 0.5,
    starting_magnetization(3) = 0.5,
 /
 &ELECTRONS
            electron_maxstep = 50001,
                    conv_thr = 1.0D-6 ,
                 mixing_mode = 'local-TF' ,
                 mixing_beta = 0.5 ,
 /
ATOMIC_SPECIES
    C   12.01100  C.revpbe-n-kjpaw_psl.0.1.UPF 
   Br   79.90350  Br.revpbe-n-kjpaw_psl.0.2.UPF 
    O   15.99940  O.revpbe-n-kjpaw_psl.0.1.UPF 
ATOMIC_POSITIONS (crystal)
C       -0.001297187  -0.000950043  -0.002390848
C        0.253491686   0.005402075  -0.000877696
C        0.501141044   0.004530176   0.007926267
C        0.746522660  -0.003020798   0.004629607
C       -0.002713542   0.248642483   0.005950111
C        0.079801452   0.165233196   0.003556298
C        0.246270261   0.250270375  -0.004568919
C        0.334756038   0.171500520  -0.010254937
C        0.502055274   0.256088274  -0.015289656
C        0.584535491   0.170705717  -0.004236504
C        0.750290357   0.250802515  -0.000273028
C        0.830708931   0.164037874   0.003119995
C        0.000849502   0.501814942   0.008291678
C        0.079145689   0.415475774   0.013424590
C        0.245373953   0.500496527   0.016875582
C        0.313744748   0.411908027  -0.006356670
C        0.598492694   0.419772188  -0.025461589
C        0.758841594   0.502654529  -0.017825882
C        0.836565106   0.417475234  -0.002135084
C        0.006874768   0.754197890  -0.002735050
C        0.086446512   0.669047057   0.006209639
C        0.251714088   0.753465326   0.013509659
C        0.330836068   0.668841433   0.026736355
C        0.493817714   0.761012653   0.058552536
Br       0.522380760   0.562728145  -0.058951757
C        0.766099585   0.753772690  -0.030800343
C        0.843822792   0.671981493  -0.018454379
C        0.086061002   0.919949392  -0.002214950
C        0.334494809   0.921371203   0.008558500
C        0.582742973   0.921315400   0.019950419
C        0.831340690   0.913069993  -0.009076298
O        0.552683551   0.712847693   0.114612356
K_POINTS automatic 
  20 20 1   0 0 0 

