&INPUTPP
          outdir = './tmp/'
          prefix = 'PG_tlh'
          filplot = 'PG_tlh-dens-dn'
          plot_num = 0,
          spin_component = 2
/
&PLOT
          nfile = 1
          filepp(1) = 'PG_tlh-dens-dn'
          weight(1) = 1.0,
          fileout = 'PG_tlh-dens-dn.xsf'
          iflag = 3
          output_format = 5
/
