 &CONTROL
                 calculation = 'scf' ,
                      outdir = './tmp/' ,
                  pseudo_dir = '/home/deleted/pseudo_psl' ,
                      prefix = 'GI_op' ,
                   verbosity = 'high' ,
               etot_conv_thr = 1.0D-5 ,
               forc_conv_thr = 4.0D-4 ,
                       nstep = 1000 ,
                    dipfield = .true. ,
 /
 &SYSTEM
                       ibrav = 4,
                           A = 9.88 ,
                           C = 15 ,
                         nat = 34,
                        ntyp = 4,
                     ecutwfc = 40.424239707 ,
                     ecutrho = 404.24239707 ,
                 occupations = 'smearing' ,
                     degauss = 0.01 ,
				   input_dft = 'vdW-DF' ,
    nspin = 2 ,
    starting_magnetization(1) = 0.5,
    starting_magnetization(2) = 0.5,
    starting_magnetization(3) = 0.5,
 /
 &ELECTRONS
            electron_maxstep = 50001,
                    conv_thr = 1.0D-6 ,
                 mixing_mode = 'local-TF' ,
                 mixing_beta = 0.5 ,
 /
ATOMIC_SPECIES
    C   12.01100  C.revpbe-n-kjpaw_psl.0.1.UPF 
    I  126.90400  I.revpbe-n-kjpaw_psl.0.2.UPF 
    O   15.99940  O.revpbe-n-kjpaw_psl.0.1.UPF 
    H   1.008000  H.revpbe-kjpaw_psl.0.1.UPF
ATOMIC_POSITIONS (crystal)
C       -0.001781857   0.000933958  -0.001877197
C        0.244390521  -0.009437334  -0.001374605
C        0.500920560   0.000941393  -0.001946773
C        0.757002019   0.015809494  -0.002630411
C        0.007014900   0.257418666  -0.001858336
C        0.084535153   0.168082587  -0.001457579
C        0.251511518   0.244920927  -0.001179847
C        0.325674724   0.153127900  -0.000890506
C        0.491632426   0.244928264  -0.001181936
C        0.581772196   0.168088095  -0.001537342
C        0.748631944   0.257433395  -0.001980343
C        0.838319944   0.178418985  -0.002089667
C        0.000413278   0.502659265  -0.002666560
C        0.095431939   0.422264446  -0.002371561
C        0.273156245   0.500243275  -0.002850121
C        0.351330864   0.407165156  -0.001950409
C        0.553995243   0.407157190  -0.001964424
C        0.725232317   0.500225751  -0.002898439
C        0.825001971   0.422264974  -0.002486215
C       -0.012786890   0.746698440  -0.002807051
C        0.082233293   0.666310492  -0.002859114
C        0.257652660   0.746691278  -0.002862058
C        0.357208593   0.668821016  -0.003468776
C        0.528425275   0.761966572  -0.003081452
I        0.590967311   0.683614582   0.221988027
C        0.731647455   0.761963532  -0.003090362
C        0.809732813   0.668829004  -0.003416634
C        0.075677984   0.911561123  -0.001918748
C        0.334090674   0.911568211  -0.001973780
C        0.591123734   0.924232226  -0.002756998
C        0.831294316   0.924225180  -0.002715970
O        0.632067186   0.674140610   0.489263399
O        0.557068626   0.730462756   0.441817802
H        0.572190993   0.713489191   0.375525248
K_POINTS automatic 
  16 16 1   0 0 0 

