 &CONTROL
                 calculation = 'nscf' ,
                      outdir = './tmp/' ,
                  pseudo_dir = '/home/deleted/pseudo_psl' ,
                      prefix = 'GF_ip' ,
                   verbosity = 'high' ,
               forc_conv_thr = 4.0D-4 ,
                       nstep = 1000 ,
                    dipfield = .true. ,
 /
 &SYSTEM
                       ibrav = 4,
                           A = 9.88 ,
                           C = 15 ,
                         nat = 33,
                        ntyp = 3,
                     ecutwfc = 40.424239707 ,
                     ecutrho = 404.24239707 ,
                 occupations = 'tetrahedra' ,
                     degauss = 0.01 ,
				   input_dft = 'vdW-DF' ,
    nspin = 2 ,
    starting_magnetization(1) = 0.5,
    starting_magnetization(2) = 0.5,
    starting_magnetization(3) = 0.5,
 /
 &ELECTRONS
            electron_maxstep = 50001,
                    conv_thr = 1.0D-6 ,
                 mixing_mode = 'local-TF' ,
                 mixing_beta = 0.5 ,
 /
ATOMIC_SPECIES
    C   12.01100  C.revpbe-n-kjpaw_psl.0.1.UPF 
    F   18.99800  F.revpbe-n-kjpaw_psl.0.1.UPF 
    O   15.99940  O.revpbe-n-kjpaw_psl.0.1.UPF 
ATOMIC_POSITIONS (crystal)
C       -0.000154047  -0.001673820   0.008861358
C        0.244873557  -0.010252885   0.006672243
C        0.498480227  -0.001673820   0.008861358
C        0.752575923   0.005151847   0.014814618
C        0.003110842   0.250287338   0.010120768
C        0.084068288   0.164823799   0.008132557
C        0.250988123   0.243550910   0.006867294
C        0.326632807   0.153265614   0.005950374
C        0.492562786   0.243550910   0.006867294
C        0.580755510   0.164823799   0.008132557
C        0.747176495   0.250287338   0.010120768
C        0.834703249   0.169406499   0.011746837
C       -0.001568389   0.496863221   0.010645501
C        0.090272292   0.415622574   0.010512385
C        0.266007340   0.495819496   0.011101690
C        0.347037500   0.405610308   0.008871550
C        0.558572806   0.405610308   0.008871550
C        0.729812156   0.495819496   0.011101690
C        0.825350281   0.415622574   0.010512385
C       -0.007241802   0.743625001   0.009447388
C        0.081087490   0.662174980   0.009419291
C        0.250866801   0.743625001   0.009447388
C        0.341014636   0.663766924   0.012768486
C        0.505068178   0.757269578   0.016092672
F        0.607600537   0.715201076  -0.105557267
C        0.752201399   0.757269578   0.016092672
C        0.822752287   0.663766924   0.012768486
C        0.078039199   0.909511441   0.007947143
C        0.331472240   0.909511441   0.007947143
C        0.585895684   0.920945201   0.013989070
C        0.835049516   0.920945201   0.013989070
O        0.592751744   0.685503491   0.047592286
O        0.603685503   0.707371005   0.149291397
K_POINTS automatic 
  20 20 1   0 0 0 

