 &CONTROL
                 calculation = 'scf' ,
                      outdir = './tmp/' ,
                  pseudo_dir = '/home/deleted/pseudo_psl' ,
                      prefix = 'GCl_op' ,
                   verbosity = 'high' ,
               etot_conv_thr = 1.0D-5 ,
               forc_conv_thr = 4.0D-4 ,
                       nstep = 1000 ,
                    dipfield = .true. ,
 /
 &SYSTEM
                       ibrav = 4,
                           A = 9.88 ,
                           C = 15 ,
                         nat = 32,
                        ntyp = 3,
                     ecutwfc = 40.424239707 ,
                     ecutrho = 404.24239707 ,
                 occupations = 'smearing' ,
                     degauss = 0.01 ,
				   input_dft = 'vdW-DF' ,
 /
 &ELECTRONS
            electron_maxstep = 50001,
                    conv_thr = 1.0D-6 ,
                 mixing_mode = 'local-TF' ,
                 mixing_beta = 0.5 ,
 /
ATOMIC_SPECIES
    C   12.01100  C.revpbe-n-kjpaw_psl.0.1.UPF 
   Cl   35.45200  Cl.revpbe-n-kjpaw_psl.0.3.0.UPF 
    O   15.99940  O.revpbe-n-kjpaw_psl.0.1.UPF 
ATOMIC_POSITIONS crystal 
C       -0.002730361  -0.000601036  -0.004330440
C        0.246255860  -0.003236712  -0.017314323
C        0.497918043   0.002394989  -0.003732213
C        0.747652150   0.002130015   0.020204351
C       -0.001148221   0.250629919  -0.006764628
C        0.081315623   0.166951543  -0.009375164
C        0.250018506   0.249518625  -0.012863625
C        0.328086649   0.161092640  -0.015025599
C        0.493840859   0.250064363  -0.012313928
C        0.580194811   0.168692294  -0.008352190
C        0.746206510   0.250783639  -0.006184428
C        0.830828060   0.167171880   0.001013892
C       -0.003293296   0.499169126  -0.015437758
C        0.084819963   0.416733538  -0.012717033
C        0.259910062   0.501057423  -0.009287382
C        0.341403502   0.412004485  -0.008979520
C        0.565754782   0.413151132  -0.007933161
C        0.735539861   0.499933995  -0.004796139
C        0.825941011   0.417009347  -0.010519184
C       -0.004977825   0.749004193  -0.018645098
C        0.078800857   0.664685173  -0.023464656
C        0.246310406   0.747188376  -0.018770869
C        0.329392061   0.666284905  -0.003597285
C        0.469115517   0.764204413   0.052329035
Cl       0.700754296   0.683137723   0.153287240
C        0.777384977   0.758870353   0.047573771
C        0.831532751   0.668392774   0.003100041
C        0.078846009   0.914759262  -0.015062560
C        0.330312026   0.915198001  -0.014172303
C        0.581368425   0.924770127   0.019514386
C        0.836382999   0.919374929   0.023858459
O        0.463703549   0.727826878   0.131168236
K_POINTS automatic 
  16 16 1   0 0 0 

