 &CONTROL
                 calculation = 'scf' ,
                      outdir = './tmp_subs/' ,
                  pseudo_dir = '/home/deleted/pseudo_psl' ,
                      prefix = 'GF_op_subs' ,
                   verbosity = 'high' ,
               etot_conv_thr = 1.0D-5 ,
               forc_conv_thr = 4.0D-4 ,
                       nstep = 1000 ,
                    dipfield = .true. ,
 /
 &SYSTEM
                       ibrav = 4,
                           A = 9.88 ,
                           C = 15 ,
                         nat = 31,
                        ntyp = 2,
                     ecutwfc = 40.424239707 ,
                     ecutrho = 404.24239707 ,
                 occupations = 'smearing' ,
                     degauss = 0.01 ,
				   input_dft = 'vdW-DF' ,
 /
 &ELECTRONS
            electron_maxstep = 50001,
                    conv_thr = 1.0D-6 ,
                 mixing_mode = 'local-TF' ,
                 mixing_beta = 0.5 ,
 /
ATOMIC_SPECIES
    C   12.01100  C.revpbe-n-kjpaw_psl.0.1.UPF 
    F   18.99800  F.revpbe-n-kjpaw_psl.0.1.UPF 
ATOMIC_POSITIONS crystal 
C       -0.007602935  -0.002443983   0.004584314
C        0.241274059  -0.004802768   0.010805704
C        0.492026009  -0.002391778   0.010737450
C        0.740978385  -0.001573794   0.001594195
C       -0.007399433   0.248062137   0.004906639
C        0.074194882   0.163839562   0.009719489
C        0.240516556   0.244784837   0.012121676
C        0.323545971   0.160783761   0.009981651
C        0.489579951   0.244298450   0.004718205
C        0.574826861   0.163445976   0.003029255
C        0.740905064   0.248029324   0.001524034
C        0.825023800   0.164882479   0.001508909
C       -0.008773073   0.497209826   0.004142626
C        0.076956583   0.414544933   0.008774903
C        0.246069306   0.498251431   0.018723383
C        0.324313703   0.408353816   0.014687753
C        0.569904268   0.408494445   0.000763677
C        0.736204529   0.496996007  -0.008442493
C        0.822451890   0.414615908  -0.001539176
C       -0.009510645   0.747186948   0.001453910
C        0.073986175   0.663203235   0.007481681
C        0.241082788   0.745648735   0.016082240
C        0.324561842   0.664246246   0.027101696
C        0.490154153   0.758532645   0.055379426
F        0.628028932   0.702784863  -0.086901683
C        0.760117685   0.760616395  -0.035545431
C        0.824658408   0.665942899  -0.015272118
C        0.074070004   0.912902082   0.005955323
C        0.324629189   0.913349715   0.014443553
C        0.576960512   0.917780352   0.016850374
C        0.828029412   0.917328430  -0.009182183
K_POINTS automatic 
  16 16 1   0 0 0 

