 &CONTROL
                 calculation = 'scf' ,
                      outdir = './tmp/' ,
                  pseudo_dir = '/home/deleted/pseudo_psl' ,
                      prefix = 'MVG_tx' ,
                    dipfield = .true. ,
                   verbosity = 'high',
                       nstep = 1000,
               forc_conv_thr = 4.0D-4,
               etot_conv_thr = 1.0D-5
 /
 &SYSTEM
                       ibrav = 4,
                           A = 9.88 ,
                           C = 15 ,
                         nat = 32,
                        ntyp = 2,
                     ecutwfc = 40.424239707 ,
                     ecutrho = 404.24239707 ,
                 occupations = 'smearing' ,
                     degauss = 0.01 ,
				   input_dft = 'vdW-DF' ,
    nspin = 2 ,
    starting_magnetization(1) = 0.5,
	starting_magnetization(2) = 0.5,
 /
 &ELECTRONS
            electron_maxstep = 50001,
                    conv_thr = 1.0D-6 ,
                 mixing_mode = 'local-TF' ,
                 mixing_beta = 0.5 ,
 /
ATOMIC_SPECIES
    C   12.01100  C.revpbe-n-kjpaw_psl.0.1.UPF 
    O   15.99940  O.revpbe-n-kjpaw_psl.0.1.UPF 
ATOMIC_POSITIONS crystal 
C        0.001743082   0.001645573  -0.005513669
C        0.248267215  -0.003465570  -0.009910274
C        0.499902492   0.001645573  -0.005513669
C        0.753345183   0.006690366   0.004695726
C        0.004027414   0.253028852  -0.006120719
C        0.085326918   0.168262778  -0.008866161
C        0.252724205   0.248923837  -0.011697428
C        0.329646251   0.159292503  -0.012722715
C        0.496199633   0.248923837  -0.011697428
C        0.582935860   0.168262778  -0.008866161
C        0.749001439   0.253028852  -0.006120719
C        0.835140105   0.170280211  -0.003237804
C        0.000517113   0.501034225  -0.003684207
C        0.090167016   0.418504734  -0.004521039
C        0.263360079   0.499927146  -0.001960204
C        0.343166648   0.410692587  -0.008647207
C        0.567525937   0.410692587  -0.008647207
C        0.736567067   0.499927146  -0.001960204
C        0.828337717   0.418504734  -0.004521039
C       -0.003427646   0.748339231  -0.003457998
C        0.082684692   0.665369384  -0.005082394
C        0.251766877   0.748339231  -0.003457998
C        0.339652264   0.668765516   0.005400741
C        0.502782144   0.758644404   0.018465828
C        0.597570741   0.695141483   0.058322157
C        0.755862260   0.758644404   0.018465828
C        0.829113252   0.668765516   0.005400741
C        0.080850729   0.914500111  -0.006478769
C        0.333649381   0.914500111  -0.006478769
C        0.585033201   0.921574899   0.005357395
C        0.836541696   0.921574899   0.005357395
O        0.558931202   0.617862405   0.127697972
K_POINTS automatic 
  16 16 1   0 0 0 

