&INPUTPP
          outdir = './tmp/'
          prefix = 'MVG_tx'
          filplot = 'MVG_tx-dens-up'
          plot_num = 0,
          spin_component = 1
/
&PLOT
          nfile = 1
          filepp(1) = 'MVG_tx-dens-up'
          weight(1) = 1.0,
          fileout = 'MVG_tx-dens-up.xsf'
          iflag = 3
          output_format = 5
/
