 &BANDS
                      prefix = 'B1_ipV' ,
                      outdir = './tmp/' ,
                     filband = 'B1_ipV-bands' ,
                     plot_2d = .false. ,
 /
