 &CONTROL
                 calculation = 'bands' ,
                      outdir = './tmp/' ,
                  pseudo_dir = '/home/deleted/pseudo_psl' ,
                      prefix = 'B1_ipV' ,
                    dipfield = .true. ,
                   verbosity = 'high',
                       nstep = 1000,
               forc_conv_thr = 4.0D-4,
               etot_conv_thr = 1.0D-5
 /
 &SYSTEM
                       ibrav = 4,
                           A = 9.88 ,
                           C = 15 ,
                         nat = 32, 
                        ntyp = 2,
                     ecutwfc = 40.424239707 ,
                     ecutrho = 404.24239707 ,
                 occupations = 'tetrahedra' ,
                     degauss = 0.01 ,
				   input_dft = 'vdW-DF' ,
    nspin = 2 ,
    starting_magnetization(1) = 0.5,
	starting_magnetization(2) = 0.5,
 /
 &ELECTRONS
            electron_maxstep = 50001,
                    conv_thr = 1.0D-6 ,
                 mixing_mode = 'local-TF' ,
                 mixing_beta = 0.5 ,
 /
ATOMIC_SPECIES
    C   12.01100  C.revpbe-n-kjpaw_psl.0.1.UPF
    O   15.99940  O.revpbe-n-kjpaw_psl.0.1.UPF 
ATOMIC_POSITIONS crystal 
C        0.001877380   0.001407602   0.000000045
C        0.247311499  -0.005377083  -0.000000051
C        0.499530225   0.001407551  -0.000000009
C        0.754350750   0.008701487   0.000000054
C        0.002595440   0.252757195  -0.000000010
C        0.081456045   0.165259095  -0.000000011
C        0.244659793   0.240797857  -0.000000051
C        0.328982648   0.157965225  -0.000000076
C        0.496138105   0.240797840  -0.000000121
C        0.583803076   0.165259066  -0.000000093
C        0.750161730   0.252757176  -0.000000063
C        0.836021869   0.172043757  -0.000000011
C        0.000344072   0.500688152  -0.000000023
C        0.087599384   0.418466840  -0.000000017
C        0.256884147   0.498216030   0.000000021
C        0.326643646   0.401874302   0.000000015
C        0.575230659   0.401874229  -0.000000034
C        0.741331820   0.498216043  -0.000000022
C        0.830867423   0.418466868  -0.000000046
C       -0.004266056   0.748199865   0.000000050
C        0.082989238   0.665978468   0.000000010
C        0.252465896   0.748199844   0.000000023
C        0.342001445   0.668450631   0.000000048
C        0.508102622   0.764792391   0.000000032
O        0.600958802   0.701917658  -0.000000189
O        0.482374484   0.464748973   0.000000234
C        0.756689719   0.764792467   0.000000064
C        0.826449131   0.668450679   0.000000061
C        0.080737945   0.913909490   0.000000018
C        0.333171583   0.913909464  -0.000000022
C        0.587195212   0.925868707   0.000000072
C        0.838673595   0.925868801   0.000000104
K_POINTS crystal_b 
4
0.0000000000    0.0000000000    0.0000000000 17
0.0000000000    0.5000000000    0.0000000000 10
0.3333333333    0.3333333333    0.0000000000 20
0.0000000000    0.0000000000    0.0000000000 1

