 &CONTROL
                 calculation = 'scf' ,
                      outdir = './tmp/' ,
                  pseudo_dir = '/home/deleted/pseudo_psl' ,
                      prefix = 'GI_ip' ,
                   verbosity = 'high' ,
               etot_conv_thr = 1.0D-5 ,
               forc_conv_thr = 4.0D-4 ,
                       nstep = 1000 ,
                    dipfield = .true. ,
 /
 &SYSTEM
                       ibrav = 4,
                           A = 9.88 ,
                           C = 15 ,
                         nat = 33,
                        ntyp = 3,
                     ecutwfc = 40.424239707 ,
                     ecutrho = 404.24239707 ,
                 occupations = 'smearing' ,
                     degauss = 0.01 ,
				   input_dft = 'vdW-DF' ,
    nspin = 2 ,
    starting_magnetization(1) = 0.5,
    starting_magnetization(2) = 0.5,
    starting_magnetization(3) = 0.5,
 /
 &ELECTRONS
            electron_maxstep = 50001,
                    conv_thr = 1.0D-6 ,
                 mixing_mode = 'local-TF' ,
                 mixing_beta = 0.5 ,
 /
ATOMIC_SPECIES
    C   12.01100  C.revpbe-n-kjpaw_psl.0.1.UPF 
    I  126.90400  I.revpbe-n-kjpaw_psl.0.2.UPF 
    O   15.99940  O.revpbe-n-kjpaw_psl.0.1.UPF 
ATOMIC_POSITIONS (crystal)
C        0.006987904   0.012232981   0.003786643
C        0.259662205   0.019324409   0.007875480
C        0.505245077   0.012232981   0.003786643
C        0.753546871   0.007093743  -0.006198192
C        0.002946711   0.259011972   0.011273505
C        0.088780911   0.179372589   0.004030058
C        0.255694051   0.265876225  -0.007154248
C        0.342251317   0.184502636  -0.005603373
C        0.510182174   0.265876225  -0.007154248
C        0.590591677   0.179372589   0.004030058
C        0.756065260   0.259011972   0.011273505
C        0.836129652   0.172259304   0.007723779
C        0.005920145   0.511840290   0.026880541
C        0.083746861   0.425819893   0.018900301
C        0.245397221   0.510677530   0.002671610
C        0.320657662   0.428951715  -0.016775501
C        0.608294052   0.428951715  -0.016775501
C        0.765280309   0.510677530   0.002671610
C        0.842073031   0.425819893   0.018900301
C        0.012077678   0.765855514   0.018695419
C        0.089926929   0.679853858   0.026875668
C        0.253777836   0.765855514   0.018695419
C        0.330535091   0.681090739   0.002204200
C        0.487243720   0.762868483  -0.018113824
I        0.547802305   0.595604612  -0.063393377
C        0.775624763   0.762868483  -0.018113824
C        0.850555647   0.681090739   0.002204200
C        0.092835109   0.932620619   0.011156033
C        0.339785510   0.932620619   0.011156033
C        0.585599297   0.925786180  -0.007989091
C        0.840186882   0.925786180  -0.007989091
O        0.556847180   0.613694358   0.163120949
O        0.624415626   0.748831252   0.197348316
K_POINTS automatic 
  16 16 1   0 0 0 

