 &CONTROL
                 calculation = 'nscf' ,
                      outdir = './tmp/' ,
                  pseudo_dir = '/home/deleted/pseudo_psl' ,
                      prefix = 'GI_ip' ,
                   verbosity = 'high' ,
               etot_conv_thr = 1.0D-5 ,
               forc_conv_thr = 4.0D-4 ,
                       nstep = 1000 ,
                    dipfield = .true. ,
 /
 &SYSTEM
                       ibrav = 4,
                           A = 9.88 ,
                           C = 15 ,
                         nat = 34,
                        ntyp = 4,
                     ecutwfc = 40.424239707 ,
                     ecutrho = 404.24239707 ,
                 occupations = 'tetrahedra' ,
                     degauss = 0.01 ,
				   input_dft = 'vdW-DF' ,
 /
 &ELECTRONS
            electron_maxstep = 50001,
                    conv_thr = 1.0D-6 ,
                 mixing_mode = 'local-TF' ,
                 mixing_beta = 0.5 ,
 /
ATOMIC_SPECIES
    C   12.01100  C.revpbe-n-kjpaw_psl.0.1.UPF 
    I  126.90400  I.revpbe-n-kjpaw_psl.0.2.UPF 
    O   15.99940  O.revpbe-n-kjpaw_psl.0.1.UPF 
    H   1.008000  H.revpbe-kjpaw_psl.0.1.UPF
ATOMIC_POSITIONS crystal 
C        0.008093028   0.007548893  -0.000465741
C        0.260342822   0.014023306   0.001907356
C        0.506281784   0.007082105  -0.002466055
C        0.754098907   0.002058831  -0.011556380
C        0.003885589   0.254210591   0.004530048
C        0.089903254   0.174429590  -0.002167987
C        0.256506656   0.260873223  -0.014265792
C        0.342838319   0.179458715  -0.011157950
C        0.510997151   0.260868411  -0.010349371
C        0.591387358   0.173972502  -0.000383238
C        0.756981645   0.254004663   0.006665719
C        0.837049981   0.167447086   0.001963696
C        0.007281799   0.506603999   0.020300891
C        0.084794599   0.420764200   0.010973154
C        0.246568654   0.505844981  -0.005599251
C        0.321122889   0.424008075  -0.026506184
C        0.608234506   0.424518580  -0.015945040
C        0.765402433   0.505661185   0.002845666
C        0.843106501   0.420551782   0.015349744
C        0.013376086   0.761108503   0.015069746
C        0.091553489   0.675050462   0.020087343
C        0.254813663   0.760903639   0.010413554
C        0.331608058   0.675907225  -0.006022188
C        0.487587149   0.757873475  -0.027941132
I        0.550639626   0.590793360  -0.067920837
C        0.775056995   0.757324512  -0.017117915
C        0.850674364   0.676108710   0.002427444
C        0.093778286   0.927585555   0.006498129
C        0.340495135   0.927335114   0.004164958
C        0.586342951   0.920633519  -0.014917210
C        0.840912387   0.920722092  -0.010860097
O        0.492725166   0.593977107   0.145959280
O        0.354158240   0.603102361   0.161443071
H        0.461050350   0.487654435   0.165938434
K_POINTS automatic 
  20 20 1   0 0 0 

