 &CONTROL
                 calculation = 'scf' ,
                      outdir = './tmp_subs/' ,
                  pseudo_dir = '/home/deleted/pseudo_psl' ,
                      prefix = 'GF_ip-subs' ,
                   verbosity = 'high' ,
               etot_conv_thr = 1.0D-5 ,
               forc_conv_thr = 4.0D-4 ,
                       nstep = 1000 ,
                    dipfield = .true. ,
 /
 &SYSTEM
                       ibrav = 4,
                           A = 9.88 ,
                           C = 15 ,
                         nat = 31,
                        ntyp = 2,
                     ecutwfc = 40.424239707 ,
                     ecutrho = 404.24239707 ,
                 occupations = 'smearing' ,
                     degauss = 0.01 ,
				   input_dft = 'vdW-DF' ,
    nspin = 2 ,
    starting_magnetization(1) = 0.5,
    starting_magnetization(2) = 0.5,
 /
 &ELECTRONS
            electron_maxstep = 50001,
                    conv_thr = 1.0D-6 ,
                 mixing_mode = 'local-TF' ,
                 mixing_beta = 0.5 ,
 /
ATOMIC_SPECIES
    C   12.01100  C.revpbe-n-kjpaw_psl.0.1.UPF 
    F   18.99800  F.revpbe-n-kjpaw_psl.0.1.UPF 
ATOMIC_POSITIONS (crystal)
C       -0.003648473   0.002062607   0.003125058
C        0.244932136   0.000731549   0.012569031
C        0.495122945   0.002666965   0.008583269
C        0.746869859   0.003547685  -0.005801717
C       -0.003798637   0.252279938   0.005528920
C        0.078152533   0.168147370   0.008996393
C        0.244446785   0.249256924   0.013987802
C        0.327265422   0.165394035   0.013524273
C        0.493914305   0.250072212   0.010054838
C        0.578691895   0.168663824   0.006040083
C        0.744908685   0.252261793   0.004050011
C        0.828943105   0.168602069   0.000932489
C       -0.005161290   0.501405322   0.007735370
C        0.080190575   0.418214218   0.010258665
C        0.248677581   0.500256100   0.016307578
C        0.327468882   0.413185041   0.016438434
C        0.574753096   0.414285432   0.007704720
C        0.740223933   0.501374333  -0.002229803
C        0.826617421   0.418471665   0.003146038
C       -0.005384490   0.751723903   0.006000989
C        0.077479730   0.667631430   0.011728657
C        0.244397747   0.751255043   0.015337180
C        0.330772558   0.669016131   0.018007733
C        0.490946889   0.760496641   0.018148657
F        0.639460249   0.697987359  -0.094004729
C        0.765067658   0.762315040  -0.036772428
C        0.829099430   0.669967032  -0.010555392
C        0.078381896   0.917870438   0.007695512
C        0.328678574   0.917576863   0.013254915
C        0.579907874   0.919969343   0.005576476
C        0.832289487   0.921573683  -0.014187623
K_POINTS automatic 
  16 16 1   0 0 0 

