 &CONTROL
                 calculation = 'bands' ,
                      outdir = './tmp/' ,
                  pseudo_dir = '/home/deleted/pseudo_psl' ,
                      prefix = 'GF_op' ,
                   verbosity = 'high' ,
               etot_conv_thr = 1.0D-5 ,
               forc_conv_thr = 4.0D-4 ,
                       nstep = 1000 ,
                    dipfield = .true. ,
 /
 &SYSTEM
                       ibrav = 4,
                           A = 9.88 ,
                           C = 15 ,
                         nat = 33,
                        ntyp = 3,
                     ecutwfc = 40.424239707 ,
                     ecutrho = 404.24239707 ,
                 occupations = 'tetrahedra' ,
                     degauss = 0.01 ,
				   input_dft = 'vdW-DF' ,
    nspin = 2 ,
    starting_magnetization(1) = 0.5,
    starting_magnetization(2) = 0.5,
    starting_magnetization(3) = 0.5,
 /
 &ELECTRONS
            electron_maxstep = 50001,
                    conv_thr = 1.0D-6 ,
                 mixing_mode = 'local-TF' ,
                 mixing_beta = 0.5 ,
 /
ATOMIC_SPECIES
    C   12.01100  C.revpbe-n-kjpaw_psl.0.1.UPF 
    F   18.99800  F.revpbe-n-kjpaw_psl.0.1.UPF 
    O   15.99940  O.revpbe-n-kjpaw_psl.0.1.UPF 
ATOMIC_POSITIONS (crystal)
C        0.002783154   0.003225972   0.002782435
C        0.249137340  -0.001725321  -0.006356141
C        0.500442818   0.003225972   0.002782435
C        0.753899597   0.007799195   0.017744101
C        0.002782565   0.253455453   0.003551750
C        0.084838307   0.168799830  -0.000385626
C        0.249617740   0.247363373  -0.008690610
C        0.331356494   0.162712990  -0.011230949
C        0.497745634   0.247363373  -0.008690610
C        0.583961523   0.168799830  -0.000385626
C        0.750672887   0.253455453   0.003551750
C        0.835957815   0.171915631   0.008630226
C        0.000595478   0.501190954   0.001993201
C        0.087350189   0.419000625   0.001490836
C        0.256728596   0.499514715  -0.000852050
C        0.335378553   0.411725548  -0.008483676
C        0.576346994   0.411725548  -0.008483676
C        0.742786120   0.499514715  -0.000852050
C        0.831650435   0.419000625   0.001490836
C       -0.001388747   0.750260337   0.000450641
C        0.083445345   0.666890691  -0.000858523
C        0.251649084   0.750260337   0.000450641
C        0.338174410   0.666513238   0.006931954
C        0.496843043   0.764764949   0.021414263
F        0.598190755   0.696381511   0.058502378
C        0.767921906   0.764764949   0.021414263
C        0.828338827   0.666513238   0.006931954
C        0.082305867   0.916336885  -0.001506705
C        0.334031017   0.916336885  -0.001506705
C        0.587069229   0.924755075   0.015915359
C        0.837685846   0.924755075   0.015915359
O        0.491545738   0.483091476  -0.036787073
O        0.463488771   0.426977542   0.136458969
K_POINTS automatic 
  20 20 1   0 0 0 

