 &CONTROL
                 calculation = 'scf' ,
                      outdir = './tmp_subs/' ,
                  pseudo_dir = '/home/deleted/pseudo_psl' ,
                      prefix = 'GI_ip-subs' ,
                    dipfield = .true. ,
                   verbosity = 'high',
                       nstep = 1000,
               forc_conv_thr = 4.0D-4,
               etot_conv_thr = 1.0D-5
 /
 &SYSTEM
                       ibrav = 4,
                           A = 9.88 ,
                           C = 15 ,
                         nat = 30,
                        ntyp = 1,
                     ecutwfc = 40.424239707 ,
                     ecutrho = 404.24239707 ,
                 occupations = 'smearing' ,
                     degauss = 0.01 ,
				   input_dft = 'vdW-DF' ,
 /
 &ELECTRONS
            electron_maxstep = 50001,
                    conv_thr = 1.0D-6 ,
                 mixing_mode = 'local-TF' ,
                 mixing_beta = 0.5 ,
 /
ATOMIC_SPECIES
    C   12.01100  C.revpbe-n-kjpaw_psl.0.1.UPF 
ATOMIC_POSITIONS crystal 
C       -0.002794917  -0.009292737   0.000000000
C        0.249731187  -0.003175931   0.000000000
C        0.505162910  -0.003150545   0.000000000
C        0.751563414  -0.009276321   0.000000000
C        0.001032796   0.243996122   0.000000000
C        0.075870512   0.156961007   0.000000000
C        0.237805584   0.242790631   0.000000000
C        0.312767683   0.158828219   0.000000000
C        0.604144883   0.158852027   0.000000000
C        0.763068623   0.242804304   0.000000000
C        0.839155700   0.156973622   0.000000000
C        0.010155366   0.498924290   0.000000000
C        0.084976952   0.411861501   0.000000000
C        0.246845467   0.498908541   0.000000000
C        0.322979401   0.413116917   0.000000000
C        0.481917568   0.497098805   0.000000000
C        0.773262852   0.497084769   0.000000000
C        0.848234786   0.413132003   0.000000000
C        0.002910141   0.745099255   0.000000000
C        0.088810315   0.665192716   0.000000000
C        0.254881422   0.751703346   0.000000000
C        0.334439202   0.665189879   0.000000000
C        0.500240983   0.745122324   0.000000000
C        0.580866092   0.659111655   0.000000000
C        0.748244902   0.738458704   0.000000000
C        0.836267736   0.659085619   0.000000000
C        0.083087096   0.910780052   0.000000000
C        0.337772653   0.917477473   0.000000000
C        0.585763821   0.910809969   0.000000000
C        0.831137810   0.904228859   0.000000000
K_POINTS automatic 
  16 16 1   0 0 0 

