 &CONTROL
                 calculation = 'nscf' ,
                      outdir = './tmp/' ,
                  pseudo_dir = '/home/deleted/pseudo_psl' ,
                      prefix = 'GBr_ip' ,
                   verbosity = 'high' ,
               etot_conv_thr = 1.0D-5 ,
               forc_conv_thr = 4.0D-4 ,
                       nstep = 1000 ,
                    dipfield = .true. ,
 /
 &SYSTEM
                       ibrav = 4,
                           A = 9.88 ,
                           C = 15 ,
                         nat = 34,
                        ntyp = 4,
                     ecutwfc = 40.424239707 ,
                     ecutrho = 404.24239707 ,
                 occupations = 'tetrahedra' ,
                     degauss = 0.01 ,
				   input_dft = 'vdW-DF' ,
    nspin = 2 ,
    starting_magnetization(1) = 0.5,
    starting_magnetization(2) = 0.5,
    starting_magnetization(3) = 0.5,
 /
 &ELECTRONS
            electron_maxstep = 50001,
                    conv_thr = 1.0D-6 ,
                 mixing_mode = 'local-TF' ,
                 mixing_beta = 0.5 ,
 /
ATOMIC_SPECIES
    C   12.01100  C.revpbe-n-kjpaw_psl.0.1.UPF 
   Br   79.90350  Br.revpbe-n-kjpaw_psl.0.2.UPF 
    O   15.99940  O.revpbe-n-kjpaw_psl.0.1.UPF 
    H   1.008000  H.revpbe-kjpaw_psl.0.1.UPF
ATOMIC_POSITIONS (crystal)
C        0.004664390   0.005735966   0.001688934
C        0.257299589   0.012605007   0.004881627
C        0.503041514   0.005731400   0.001585331
C        0.751174195   0.000326846  -0.004773264
C        0.000860639   0.252684940   0.006993652
C        0.086651888   0.172913988   0.001923694
C        0.254473160   0.260181628  -0.005508499
C        0.340190333   0.178355179  -0.004618686
C        0.507692598   0.260121302  -0.006493108
C        0.588265864   0.172924889   0.001116407
C        0.753836777   0.252703902   0.006307375
C        0.834055572   0.166096708   0.004554011
C        0.003611987   0.505291782   0.017211028
C        0.081433775   0.419306687   0.012239483
C        0.244468106   0.504382015   0.001664671
C        0.321312748   0.423537738  -0.012379914
C        0.604208166   0.423404965  -0.014240745
C        0.761948857   0.504347628  -0.000023669
C        0.839905922   0.419355985   0.011310299
C        0.009811762   0.759282542   0.011844801
C        0.087652728   0.673369693   0.017392052
C        0.251464632   0.759360599   0.012353310
C        0.329408699   0.674242570   0.001683353
C        0.487099698   0.755052158  -0.012444230
Br       0.545343580   0.589430723  -0.038307969
C        0.769978094   0.755195622  -0.013578977
C        0.846889109   0.674277930   0.000364861
C        0.090462209   0.925972714   0.006957798
C        0.337514097   0.925971637   0.007035221
C        0.583606719   0.918464961  -0.005814049
C        0.836911699   0.918565151  -0.006134944
O        0.538460323   0.607832138   0.157961243
O        0.525637314   0.470040212   0.194246976
H        0.618723677   0.509569640   0.232293365
K_POINTS automatic 
  20 20 1   0 0 0 

