 &CONTROL
                 calculation = 'nscf' ,
                      outdir = './tmp/' ,
                  pseudo_dir = '/home/deleted/pseudo_psl' ,
                      prefix = 'GF_op' ,
                   verbosity = 'high' ,
               etot_conv_thr = 1.0D-5 ,
               forc_conv_thr = 4.0D-4 ,
                       nstep = 1000 ,
                    dipfield = .true. ,
 /
 &SYSTEM
                       ibrav = 4,
                           A = 9.88 ,
                           C = 15 ,
                         nat = 34,
                        ntyp = 4,
                     ecutwfc = 40.424239707 ,
                     ecutrho = 404.24239707 ,
                 occupations = 'tetrahedra' ,
                     degauss = 0.01 ,
				   input_dft = 'vdW-DF' ,
 /
 &ELECTRONS
            electron_maxstep = 50001,
                    conv_thr = 1.0D-6 ,
                 mixing_mode = 'local-TF' ,
                 mixing_beta = 0.5 ,
 /
ATOMIC_SPECIES
    C   12.01100  C.revpbe-n-kjpaw_psl.0.1.UPF 
    F   18.99800  F.revpbe-n-kjpaw_psl.0.1.UPF 
    O   15.99940  O.revpbe-n-kjpaw_psl.0.1.UPF 
	H   1.00800   H.revpbe-kjpaw_psl.0.1.UPF
ATOMIC_POSITIONS crystal 
C        0.001909782   0.005740621   0.014319743
C        0.250548447   0.004233157   0.017853175
C        0.503186243   0.007465824   0.013795632
C        0.752202680   0.008213389   0.008473765
C        0.002573070   0.256449567   0.011741856
C        0.084144788   0.171863219   0.018140133
C        0.249878877   0.251666416   0.019593176
C        0.333300284   0.169244484   0.017936869
C        0.500009920   0.253795847   0.010510059
C        0.585581994   0.173292514   0.007890768
C        0.751773443   0.257160596   0.006414749
C        0.835728116   0.174427225   0.008119760
C        0.001466428   0.505485208   0.005649839
C        0.087327092   0.422337076   0.010448071
C        0.255043880   0.501919048   0.012972079
C        0.332812559   0.416351715   0.016540542
C        0.580338977   0.417493136   0.005677116
C        0.746462199   0.505805226  -0.003224033
C        0.834223013   0.424112157   0.002683559
C        0.000417265   0.755861586   0.008527548
C        0.085051026   0.673008071   0.009606474
C        0.249900078   0.757345559   0.011530326
C        0.344130362   0.675270566  -0.000063931
C        0.493870924   0.766557364   0.054500026
F        0.641893807   0.714549251  -0.082262721
C        0.770993366   0.770138322  -0.027900734
C        0.834747526   0.674680117  -0.008163218
C        0.084061684   0.921647455   0.014299237
C        0.333467887   0.920987759   0.016214178
C        0.588900243   0.929327965   0.019795119
C        0.838110907   0.925926550  -0.000309791
O        0.495620244   0.493922174   0.013431791
O        0.527068697   0.722418410   0.122758805
H        0.386396507   0.698180920  -0.070134836
K_POINTS automatic 
  20 20 1   0 0 0 

