 &CONTROL
                 calculation = 'nscf' ,
                      outdir = './tmp/' ,
                  pseudo_dir = '/home/deleted/pseudo_psl' ,
                      prefix = 'MVG_tc' ,
                    dipfield = .true. ,
                   verbosity = 'high',
                       nstep = 1000,
               forc_conv_thr = 4.0D-4,
               etot_conv_thr = 1.0D-5
 /
 &SYSTEM
                       ibrav = 4,
                           A = 9.88 ,
                           C = 15 ,
                         nat = 33,
                        ntyp = 2,
                     ecutwfc = 40.424239707 ,
                     ecutrho = 404.24239707 ,
                 occupations = 'tetrahedra' ,
                     degauss = 0.01 ,
				   input_dft = 'vdW-DF' ,
    nspin = 2 ,
    starting_magnetization(1) = 0.5,
	starting_magnetization(2) = 0.5,
 /
 &ELECTRONS
            electron_maxstep = 50001,
                    conv_thr = 1.0D-6 ,
                 mixing_mode = 'local-TF' ,
                 mixing_beta = 0.5 ,
 /
 &IONS
                ion_dynamics = 'bfgs' ,
 /
ATOMIC_SPECIES
    C   12.01100  C.revpbe-n-kjpaw_psl.0.1.UPF 
    O   15.99940  O.revpbe-n-kjpaw_psl.0.1.UPF 
ATOMIC_POSITIONS crystal 
C        0.002339630   0.012558923  -0.016684403
C        0.251870876   0.012972233  -0.013576937
C        0.501471303   0.013600845  -0.006766342
C        0.752871460   0.013516792  -0.005121818
C        0.001524699   0.262122112  -0.005194625
C        0.084533994   0.178144155  -0.009994761
C        0.248687430   0.257216774   0.001467354
C        0.334070020   0.179309345  -0.008445797
C        0.503279589   0.267166768  -0.010039067
C        0.585439231   0.181220772  -0.008837258
C        0.751397756   0.263684497  -0.008250271
C        0.835536839   0.179496613  -0.007589836
C        0.001472629   0.513559339  -0.006385202
C        0.085898535   0.430991402  -0.000009338
C        0.248438868   0.513006674   0.017105634
C        0.307893626   0.407929587   0.049976641
C        0.584241129   0.430792350  -0.015337439
C        0.747816752   0.511726171  -0.009644045
C        0.833848618   0.429624760  -0.008503588
C        0.001934837   0.763079103  -0.013198096
C        0.085805038   0.679656979  -0.008752312
C        0.252462518   0.762544983  -0.003703927
C        0.335695914   0.679317860   0.012900004
C        0.501990732   0.766703387   0.017138400
C        0.606781509   0.707250023   0.050421525
C        0.757747474   0.766341815   0.002207475
C        0.835608856   0.680918874  -0.007786233
C        0.085360303   0.929554168  -0.015441922
C        0.335350439   0.929181064  -0.009054894
C        0.584003100   0.929187810  -0.000098625
C        0.836810458   0.930431849  -0.009594993
O        0.600164972   0.665266999   0.128629456
O        0.349526418   0.413436084   0.128165241
K_POINTS automatic 
  20 20 1   0 0 0 

