 &CONTROL
                 calculation = 'bands' ,
                      outdir = './tmp/' ,
                  pseudo_dir = '/home/deleted/pseudo_psl' ,
                      prefix = 'GCl_ip' ,
                   verbosity = 'high' ,
               etot_conv_thr = 1.0D-5 ,
               forc_conv_thr = 4.0D-4 ,
                       nstep = 1000 ,
                    dipfield = .true. ,
 /
 &SYSTEM
                       ibrav = 4,
                           A = 9.88 ,
                           C = 15 ,
                         nat = 33,
                        ntyp = 3,
                     ecutwfc = 40.424239707 ,
                     ecutrho = 404.24239707 ,
                 occupations = 'tetrahedra' ,
                     degauss = 0.01 ,
				   input_dft = 'vdW-DF' ,
    nspin = 2 ,
    starting_magnetization(1) = 0.5,
    starting_magnetization(2) = 0.5,
    starting_magnetization(3) = 0.5,
 /
 &ELECTRONS
            electron_maxstep = 50001,
                    conv_thr = 1.0D-6 ,
                 mixing_mode = 'local-TF' ,
                 mixing_beta = 0.5 ,
 /
ATOMIC_SPECIES
    C   12.01100  C.revpbe-n-kjpaw_psl.0.1.UPF 
   Cl   35.45200  Cl.revpbe-n-kjpaw_psl.0.3.0.UPF 
    O   15.99940  O.revpbe-n-kjpaw_psl.0.1.UPF 
ATOMIC_POSITIONS (crystal)
C        0.001631267   0.002059955  -0.000536089
C        0.254096533   0.008193064   0.000118259
C        0.500428688   0.002059955  -0.000536089
C        0.748503159  -0.002993683  -0.001595851
C       -0.001527716   0.249516784   0.000912864
C        0.084126637   0.169380592  -0.000494089
C        0.252545742   0.257058840  -0.002271529
C        0.337227031   0.174454062  -0.001996268
C        0.504513098   0.257058840  -0.002271529
C        0.585253953   0.169380592  -0.000494089
C        0.751044499   0.249516784   0.000912864
C        0.831629493   0.163258987   0.000542405
C        0.000866412   0.501732823   0.003088996
C        0.079137968   0.416041599   0.001935225
C        0.243463541   0.500976542  -0.000722712
C        0.323547355   0.421507919  -0.003894261
C        0.597960563   0.421507919  -0.003894261
C        0.757513001   0.500976542  -0.000722712
C        0.836903630   0.416041599   0.001935225
C        0.006584229   0.755391613   0.001673726
C        0.084860765   0.669721532   0.002885466
C        0.248807385   0.755391613   0.001673726
C        0.328174844   0.670434235  -0.000689673
C        0.487756174   0.749946873  -0.003546190
Cl       0.542849731   0.585699464  -0.007153268
C        0.762190698   0.749946873  -0.003546190
C        0.842259390   0.670434235  -0.000689673
C        0.087259349   0.921913628   0.000571655
C        0.334654279   0.921913628   0.000571655
C        0.581192913   0.914389164  -0.002008069
C        0.833196250   0.914389164  -0.002008069
O        0.538603371   0.577206741   0.216487509
O        0.466079098   0.432158196   0.205761037
K_POINTS automatic 
  20 20 1   0 0 0 

