 &CONTROL
                 calculation = 'scf' ,
                      outdir = './tmp/' ,
                  pseudo_dir = '/home/deleted/pseudo_psl' ,
                      prefix = 'GBr_op' ,
                   verbosity = 'high' ,
               etot_conv_thr = 1.0D-5 ,
               forc_conv_thr = 4.0D-4 ,
                       nstep = 1000 ,
                    dipfield = .true. ,
 /
 &SYSTEM
                       ibrav = 4,
                           A = 9.88 ,
                           C = 15 ,
                         nat = 33,
                        ntyp = 3,
                     ecutwfc = 40.424239707 ,
                     ecutrho = 404.24239707 ,
                 occupations = 'smearing' ,
                     degauss = 0.01 ,
				   input_dft = 'vdW-DF' ,
 /
 &ELECTRONS
            electron_maxstep = 50001,
                    conv_thr = 1.0D-6 ,
                 mixing_mode = 'local-TF' ,
                 mixing_beta = 0.5 ,
 /
ATOMIC_SPECIES
    C   12.01100  C.revpbe-n-kjpaw_psl.0.1.UPF 
   Br   79.90350  Br.revpbe-n-kjpaw_psl.0.2.UPF 
    O   15.99940  O.revpbe-n-kjpaw_psl.0.1.UPF 
ATOMIC_POSITIONS crystal 
C       -0.001958569  -0.001187511  -0.002640603
C        0.244054135  -0.011891728  -0.002080485
C        0.500771058  -0.001187511  -0.002640603
C        0.756827500   0.013654999  -0.003492403
C        0.006852422   0.255366524  -0.003185753
C        0.084527090   0.166019865  -0.002519651
C        0.251528883   0.242820081  -0.002340771
C        0.325431009   0.150862020  -0.001774085
C        0.491291198   0.242820081  -0.002340771
C        0.581492775   0.166019865  -0.002519651
C        0.748514102   0.255366524  -0.003185753
C        0.838326129   0.176652261  -0.003176528
C        0.000207060   0.500414121  -0.004404967
C        0.095445293   0.420228890  -0.004095662
C        0.273568970   0.498295215  -0.004533876
C        0.352381032   0.405235138  -0.003497748
C        0.552854105   0.405235138  -0.003497748
C        0.724726245   0.498295215  -0.004533876
C        0.824783597   0.420228890  -0.004095662
C       -0.013191513   0.744355254  -0.003987321
C        0.082109433   0.664218867  -0.004342505
C        0.257546767   0.744355254  -0.003987321
C        0.356931407   0.666433628  -0.004666369
C        0.528961939   0.759652168  -0.002891132
Br       0.598610414   0.697220830   0.185594861
C        0.730690229   0.759652168  -0.002891132
C        0.809502220   0.666433628  -0.004666369
C        0.075482287   0.909343022  -0.002693573
C        0.333860735   0.909343022  -0.002693573
C        0.591170915   0.922315237  -0.003265531
C        0.831144320   0.922315237  -0.003265531
O        0.659274473   0.693502818   0.405473030
O        0.534228344   0.693502818   0.405473030
K_POINTS automatic 
  16 16 1   0 0 0 

