 &CONTROL
                 calculation = 'bands' ,
                      outdir = './tmp/' ,
                  pseudo_dir = '/home/deleted/pseudo_psl' ,
                      prefix = 'GI_ip' ,
                   verbosity = 'high' ,
               etot_conv_thr = 1.0D-5 ,
               forc_conv_thr = 4.0D-4 ,
                       nstep = 1000 ,
                    dipfield = .true. ,
 /
 &SYSTEM
                       ibrav = 4,
                           A = 9.88 ,
                           C = 15 ,
                         nat = 34,
                        ntyp = 4,
                     ecutwfc = 40.424239707 ,
                     ecutrho = 404.24239707 ,
                 occupations = 'tetrahedra' ,
                     degauss = 0.01 ,
				   input_dft = 'vdW-DF' ,
    nspin = 2 ,
    starting_magnetization(1) = 0.5,
    starting_magnetization(2) = 0.5,
    starting_magnetization(3) = 0.5,
 /
 &ELECTRONS
            electron_maxstep = 50001,
                    conv_thr = 1.0D-6 ,
                 mixing_mode = 'local-TF' ,
                 mixing_beta = 0.5 ,
 /
ATOMIC_SPECIES
    C   12.01100  C.revpbe-n-kjpaw_psl.0.1.UPF 
    I  126.90400  I.revpbe-n-kjpaw_psl.0.2.UPF 
    O   15.99940  O.revpbe-n-kjpaw_psl.0.1.UPF 
    H   1.008000  H.revpbe-kjpaw_psl.0.1.UPF
ATOMIC_POSITIONS (crystal)
C        0.001054907   0.014112158  -0.000238499
C        0.248790485   0.010738587  -0.002332520
C        0.500168914   0.014913050   0.011039603
C        0.752712271   0.016838302   0.008835469
C        0.002095864   0.264072530   0.011130149
C        0.084880184   0.180046182   0.005630130
C        0.250344554   0.259444860   0.010968314
C        0.331358710   0.177224611  -0.004595521
C        0.498950272   0.260316390  -0.011751376
C        0.583777336   0.180073002   0.008733686
C        0.752048120   0.264752311   0.009575177
C        0.836393528   0.182019769   0.009406858
C        0.000102589   0.513020707   0.008664140
C        0.086231509   0.431443879   0.013975609
C        0.251215589   0.513426653   0.025429308
C        0.321304932   0.416595591   0.053362505
C        0.588810871   0.416152529  -0.038568842
C        0.738062229   0.509005310   0.014323392
C        0.834928355   0.428388553   0.008552839
C       -0.003182448   0.762563588   0.001881182
C        0.083626518   0.680329640   0.006357391
C        0.251213798   0.762575153   0.009110554
C        0.337645994   0.678880486   0.019172413
C        0.505824869   0.769284012   0.016702923
I        0.544932500   0.490906214  -0.163333316
C        0.752388109   0.769645770   0.006572987
C        0.829291301   0.683135078   0.003349381
C        0.082034827   0.928779639  -0.000890948
C        0.333321359   0.928926038   0.004262710
C        0.585507211   0.932405037   0.012839733
C        0.835184982   0.934106275   0.004000080
O        0.590524676   0.691643338   0.016362853
O        0.412777752   0.453227691   0.117248475
H        0.691821436   0.489379516   0.083957759
K_POINTS automatic 
  20 20 1   0 0 0 

