 &CONTROL
                 calculation = 'scf' ,
                      outdir = './tmp/' ,
                  pseudo_dir = '/home/deleted/pseudo_psl' ,
                      prefix = 'GI_ip' ,
                   verbosity = 'high' ,
               etot_conv_thr = 1.0D-5 ,
               forc_conv_thr = 4.0D-4 ,
                       nstep = 1000 ,
                    dipfield = .true. ,
 /
 &SYSTEM
                       ibrav = 4,
                           A = 9.88 ,
                           C = 15 ,
                         nat = 34,
                        ntyp = 4,
                     ecutwfc = 40.424239707 ,
                     ecutrho = 404.24239707 ,
                 occupations = 'smearing' ,
                     degauss = 0.01 ,
				   input_dft = 'vdW-DF' ,
 /
 &ELECTRONS
            electron_maxstep = 50001,
                    conv_thr = 1.0D-6 ,
                 mixing_mode = 'local-TF' ,
                 mixing_beta = 0.5 ,
 /
ATOMIC_SPECIES
    C   12.01100  C.revpbe-n-kjpaw_psl.0.1.UPF 
    I  126.90400  I.revpbe-n-kjpaw_psl.0.2.UPF 
    O   15.99940  O.revpbe-n-kjpaw_psl.0.1.UPF 
    H   1.008000  H.revpbe-kjpaw_psl.0.1.UPF
ATOMIC_POSITIONS crystal 
C        0.005786114   0.015848163  -0.003447238
C        0.258427889   0.022693573  -0.005622669
C        0.504292658   0.015774385  -0.002770709
C        0.752325704   0.010330440   0.005926608
C        0.001693955   0.262528123  -0.007481363
C        0.087578084   0.182809887  -0.001214554
C        0.254486658   0.269712117   0.009684764
C        0.341125313   0.188329675   0.005756246
C        0.509127252   0.270861822   0.002553862
C        0.588978110   0.183028956  -0.004796385
C        0.754653521   0.262680927  -0.010587901
C        0.834815975   0.175970811  -0.005306889
C        0.004785434   0.515051610  -0.022801541
C        0.082712943   0.429088869  -0.014345403
C        0.244996096   0.513690433  -0.000065369
C        0.321071905   0.433204106   0.019345988
C        0.602756057   0.436191427   0.002726297
C        0.761456878   0.514335102  -0.012009799
C        0.840336349   0.429135745  -0.019140404
C        0.010997364   0.769727410  -0.018857127
C        0.089159333   0.683499483  -0.023039921
C        0.253106841   0.769283179  -0.015437685
C        0.330721463   0.684271067  -0.001686207
C        0.488190477   0.764413716   0.014412234
I        0.548127130   0.599944846   0.070752161
C        0.768757863   0.763682825   0.007706450
C        0.847236314   0.684670803  -0.010485872
C        0.091680952   0.936076432  -0.009828285
C        0.338746395   0.935969559  -0.008962382
C        0.584247714   0.928386959   0.007338890
C        0.838597430   0.928504663   0.004958066
O        0.420702612   0.651025469   0.188707089
O        0.398386024   0.518478307   0.246865777
H        0.461548058   0.575706884   0.298391161
K_POINTS automatic 
  16 16 1   0 0 0 

