 &CONTROL
                 calculation = 'relax' ,
                      outdir = './tmp/' ,
                  pseudo_dir = '/home/deleted/pseudo_psl' ,
                      prefix = 'GI_ip' ,
                   verbosity = 'high' ,
               etot_conv_thr = 1.0D-5 ,
               forc_conv_thr = 4.0D-4 ,
                       nstep = 1000 ,
                    dipfield = .true. ,
 /
 &SYSTEM
                       ibrav = 4,
                           A = 9.88 ,
                           C = 15 ,
                         nat = 33,
                        ntyp = 3,
                     ecutwfc = 40.424239707 ,
                     ecutrho = 404.24239707 ,
                 occupations = 'smearing' ,
                     degauss = 0.01 ,
				   input_dft = 'vdW-DF' ,
 /
 &ELECTRONS
            electron_maxstep = 50001,
                    conv_thr = 1.0D-6 ,
                 mixing_mode = 'local-TF' ,
                 mixing_beta = 0.5 ,
 /
 &IONS
                ion_dynamics = 'bfgs' ,
 /
ATOMIC_SPECIES
    C   12.01100  C.revpbe-n-kjpaw_psl.0.1.UPF 
    I  126.90400  I.revpbe-n-kjpaw_psl.0.2.UPF 
    O   15.99940  O.revpbe-n-kjpaw_psl.0.1.UPF 
ATOMIC_POSITIONS crystal 
C        0.009082840   0.007723801  -0.001575244
C        0.261970251   0.014769568  -0.005162483
C        0.507662233   0.008017283  -0.002800586
C        0.755820384   0.002827321   0.006904881
C        0.005415597   0.254754366  -0.009242796
C        0.090999134   0.174847635  -0.002440730
C        0.258294928   0.261703763   0.007172929
C        0.344612853   0.180000518   0.007166214
C        0.512488932   0.261842582   0.008735101
C        0.592854301   0.175134006  -0.001731348
C        0.758469333   0.254857266  -0.008192353
C        0.838590533   0.168178875  -0.005150294
C        0.008291025   0.507516094  -0.023553197
C        0.086128288   0.421254039  -0.017719468
C        0.248818763   0.506335980  -0.005355282
C        0.324882033   0.425264129   0.012897207
C        0.609613676   0.425736786   0.016507624
C        0.767131037   0.506375291  -0.001411581
C        0.844441998   0.421490566  -0.015429194
C        0.014446135   0.761501542  -0.015491189
C        0.092290418   0.675521053  -0.023666564
C        0.256382263   0.761721666  -0.017922506
C        0.334030837   0.676716392  -0.005644821
C        0.490800376   0.757737532   0.013335695
I        0.548319269   0.591554597   0.065508262
C        0.774952879   0.757063597   0.015663297
C        0.852175541   0.676563872  -0.001635996
C        0.095043849   0.928089627  -0.008221776
C        0.342131978   0.928143077  -0.009434081
C        0.588057296   0.921354310   0.007006096
C        0.841891686   0.921001210   0.008478005
O        0.400092543   0.745985871   0.207605220
O        0.340921421   0.595378396   0.204800958
K_POINTS automatic 
  4 4 1   0 0 0 

