 &CONTROL
                 calculation = 'bands' ,
                      outdir = './tmp/' ,
                  pseudo_dir = '/home/deleted/pseudo_psl' ,
                      prefix = 'GI_ip' ,
                   verbosity = 'high' ,
               etot_conv_thr = 1.0D-5 ,
               forc_conv_thr = 4.0D-4 ,
                       nstep = 1000 ,
                    dipfield = .true. ,
 /
 &SYSTEM
                       ibrav = 4,
                           A = 9.88 ,
                           C = 15 ,
                         nat = 33,
                        ntyp = 3,
                     ecutwfc = 40.424239707 ,
                     ecutrho = 404.24239707 ,
                 occupations = 'tetrahedra' ,
                     degauss = 0.01 ,
				   input_dft = 'vdW-DF' ,
 /
 &ELECTRONS
            electron_maxstep = 50001,
                    conv_thr = 1.0D-6 ,
                 mixing_mode = 'local-TF' ,
                 mixing_beta = 0.5 ,
 /
ATOMIC_SPECIES
    C   12.01100  C.revpbe-n-kjpaw_psl.0.1.UPF 
    I  126.90400  I.revpbe-n-kjpaw_psl.0.2.UPF 
    O   15.99940  O.revpbe-n-kjpaw_psl.0.1.UPF 
ATOMIC_POSITIONS crystal 
C        0.002109563   0.002445621   0.004368030
C        0.254832590   0.009665180   0.008107723
C        0.500336058   0.002445621   0.004368030
C        0.748642098  -0.002715802  -0.005326731
C       -0.001945987   0.249156111   0.011659638
C        0.083909646   0.169586031   0.004364466
C        0.250790364   0.256089434  -0.006728437
C        0.337379258   0.174758517  -0.005340871
C        0.505299070   0.256089434  -0.006728437
C        0.585676384   0.169586031   0.004364466
C        0.751102097   0.249156111   0.011659638
C        0.831189766   0.162379533   0.008112241
C        0.001011993   0.502023986   0.027006955
C        0.078742656   0.415857464   0.019329512
C        0.240583875   0.500787487   0.004133716
C        0.315927165   0.419280379  -0.015071230
C        0.603353213   0.419280379  -0.015071230
C        0.760203612   0.500787487   0.004133716
C        0.837114807   0.415857464   0.019329512
C        0.007278052   0.756177837   0.019332110
C        0.084998982   0.669997964   0.026996084
C        0.248899786   0.756177837   0.019332110
C        0.325832789   0.671256516   0.004157157
C        0.482664843   0.752759020  -0.015082398
I        0.543003562   0.586007126  -0.061493461
C        0.770094177   0.752759020  -0.015082398
C        0.845423726   0.671256516   0.004157157
C        0.087966352   0.922876762   0.011662351
C        0.334910410   0.922876762   0.011662351
C        0.580723071   0.915948467  -0.006721241
C        0.835225395   0.915948467  -0.006721241
O        0.580704221   0.661408443   0.165614077
O        0.505363334   0.510726671   0.165516636
K_POINTS crystal_b 
4
0.0000000000    0.0000000000    0.0000000000 17
0.0000000000    0.5000000000    0.0000000000 10
0.3333333333    0.3333333333    0.0000000000 20
0.0000000000    0.0000000000    0.0000000000 1

