&PROJWFC
  outdir = './tmp',
  prefix = 'PG',
  filpdos = 'PG-pdos',
  ngauss = 1,
  degauss = 0.01,
  DeltaE = 0.01,
  lsym = .true.
/
