 &CONTROL
                 calculation = 'nscf' ,
                      outdir = './tmp/' ,
                  pseudo_dir = '/home/deleted/pseudo_psl' ,
                      prefix = 'GBr_op' ,
                   verbosity = 'high' ,
               etot_conv_thr = 1.0D-5 ,
               forc_conv_thr = 4.0D-4 ,
                       nstep = 1000 ,
                    dipfield = .true. ,
 /
 &SYSTEM
                       ibrav = 4,
                           A = 9.88 ,
                           C = 15 ,
                         nat = 34,
                        ntyp = 4,
                     ecutwfc = 40.424239707 ,
                     ecutrho = 404.24239707 ,
                 occupations = 'tetrahedra' ,
                     degauss = 0.01 ,
				   input_dft = 'vdW-DF' ,
    nspin = 2 ,
    starting_magnetization(1) = 0.5,
    starting_magnetization(2) = 0.5,
    starting_magnetization(3) = 0.5,
 /
 &ELECTRONS
            electron_maxstep = 50001,
                    conv_thr = 1.0D-6 ,
                 mixing_mode = 'local-TF' ,
                 mixing_beta = 0.5 ,
 /
ATOMIC_SPECIES
    C   12.01100  C.revpbe-n-kjpaw_psl.0.1.UPF 
   Br   79.90350  Br.revpbe-n-kjpaw_psl.0.2.UPF 
    O   15.99940  O.revpbe-n-kjpaw_psl.0.1.UPF 
    H   1.008000  H.revpbe-kjpaw_psl.0.1.UPF
ATOMIC_POSITIONS (crystal)
C       -0.004706083  -0.006914593  -0.002896005
C        0.241547796  -0.017214684  -0.002051765
C        0.498115511  -0.006896317  -0.002245968
C        0.754496848   0.008678941  -0.003391763
C        0.004523170   0.249854396  -0.003108765
C        0.081760811   0.160441397  -0.002885735
C        0.248678701   0.237039212  -0.002499129
C        0.322569826   0.144833502  -0.002070044
C        0.488658974   0.237047371  -0.002131285
C        0.578993609   0.160447672  -0.002237146
C        0.745634013   0.249873426  -0.002661255
C        0.835538058   0.170762151  -0.003291468
C       -0.002180781   0.495323959  -0.002565609
C        0.093090031   0.414583200  -0.002721012
C        0.270279864   0.492207868  -0.002713873
C        0.348679547   0.398997741  -0.002691609
C        0.550640724   0.399016927  -0.002527913
C        0.722226255   0.492221047  -0.002627238
C        0.821800043   0.414595117  -0.002550781
C       -0.016096997   0.738832410  -0.002522676
C        0.079200477   0.658087206  -0.002430611
C        0.255232168   0.738827589  -0.002368061
C        0.354621489   0.661067296  -0.002669397
C        0.526329122   0.754449256  -0.002718849
Br       0.552376171   0.600423268   0.242707386
C        0.728493561   0.754468613  -0.003017896
C        0.806760547   0.661087491  -0.002807779
C        0.072455420   0.903609943  -0.002427369
C        0.331466101   0.903615975  -0.002093173
C        0.588477461   0.916529881  -0.002771942
C        0.828377663   0.916530984  -0.003276156
O        0.948008754   1.107506472   0.219013611
O        0.808220225   1.068895878   0.214499835
H        0.582723759   0.675671085   0.156718144
K_POINTS automatic 
  20 20 1   0 0 0 

