 &CONTROL
                 calculation = 'nscf' ,
                      outdir = './tmp/' ,
                  pseudo_dir = '/home/deleted/pseudo_psl' ,
                      prefix = 'GI_op' ,
                   verbosity = 'high' ,
               etot_conv_thr = 1.0D-5 ,
               forc_conv_thr = 4.0D-4 ,
                       nstep = 1000 ,
                    dipfield = .true. ,
 /
 &SYSTEM
                       ibrav = 4,
                           A = 9.88 ,
                           C = 15 ,
                         nat = 34,
                        ntyp = 4,
                     ecutwfc = 40.424239707 ,
                     ecutrho = 404.24239707 ,
                 occupations = 'tetrahedra' ,
                     degauss = 0.01 ,
				   input_dft = 'vdW-DF' ,
    nspin = 2 ,
    starting_magnetization(1) = 0.5,
    starting_magnetization(2) = 0.5,
    starting_magnetization(3) = 0.5,
 /
 &ELECTRONS
            electron_maxstep = 50001,
                    conv_thr = 1.0D-6 ,
                 mixing_mode = 'local-TF' ,
                 mixing_beta = 0.5 ,
 /
ATOMIC_SPECIES
    C   12.01100  C.revpbe-n-kjpaw_psl.0.1.UPF 
    I  126.90400  I.revpbe-n-kjpaw_psl.0.2.UPF 
    O   15.99940  O.revpbe-n-kjpaw_psl.0.1.UPF 
    H   1.008000  H.revpbe-kjpaw_psl.0.1.UPF
ATOMIC_POSITIONS (crystal)
C       -0.002116656  -0.017050905  -0.004659491
C        0.244075829  -0.027521046  -0.005345123
C        0.500613382  -0.016942565  -0.006452484
C        0.757313080  -0.001107234  -0.006171570
C        0.007153011   0.239771465  -0.004570519
C        0.084336315   0.150291830  -0.004387635
C        0.251275516   0.226775163  -0.003993256
C        0.325074313   0.134471549  -0.004697839
C        0.491137373   0.226771230  -0.004707590
C        0.581568609   0.150335954  -0.005598528
C        0.748189283   0.239791642  -0.005109831
C        0.838181153   0.160795809  -0.005623388
C        0.000427012   0.485247384  -0.003930615
C        0.095761046   0.404484431  -0.003960427
C        0.273031097   0.482064599  -0.003797890
C        0.351529959   0.388780758  -0.003657488
C        0.552917227   0.388761273  -0.003949261
C        0.724596709   0.482076871  -0.003750288
C        0.824272154   0.404459319  -0.004013222
C       -0.013642808   0.728678345  -0.004413607
C        0.081809462   0.647961176  -0.004440865
C        0.257904275   0.728713755  -0.005323914
C        0.357375038   0.650985201  -0.004573219
C        0.529460987   0.744303863  -0.004689045
I        0.548306254   0.866328770   0.230817387
C        0.730650033   0.744451731  -0.004322834
C        0.809069915   0.651019208  -0.003944220
C        0.074993425   0.893415358  -0.004768157
C        0.334028865   0.893430292  -0.006150022
C        0.591227947   0.906645342  -0.006066639
C        0.830919660   0.906528540  -0.005062549
O        0.721754648   1.063912803   0.214050852
O        0.359580642   0.862658097   0.215222828
H        0.550148082   0.862397040   0.347193504
K_POINTS automatic 
  20 20 1   0 0 0 

