 &CONTROL
                 calculation = 'scf' ,
                      outdir = './tmp_subs/' ,
                  pseudo_dir = '/home/deleted/pseudo_psl' ,
                      prefix = 'GBr_ip-subs' ,
                   verbosity = 'high' ,
               etot_conv_thr = 1.0D-5 ,
               forc_conv_thr = 4.0D-4 ,
                       nstep = 1000 ,
                    dipfield = .true. ,
 /
 &SYSTEM
                       ibrav = 4,
                           A = 9.88 ,
                           C = 15 ,
                         nat = 31,
                        ntyp = 2,
                     ecutwfc = 40.424239707 ,
                     ecutrho = 404.24239707 ,
                 occupations = 'smearing' ,
                     degauss = 0.01 ,
				   input_dft = 'vdW-DF' ,
    nspin = 2 ,
    starting_magnetization(1) = 0.5,
    starting_magnetization(2) = 0.5,
 /
 &ELECTRONS
            electron_maxstep = 50001,
                    conv_thr = 1.0D-6 ,
                 mixing_mode = 'local-TF' ,
                 mixing_beta = 0.5 ,
 /
ATOMIC_SPECIES
    C   12.01100  C.revpbe-n-kjpaw_psl.0.1.UPF 
   Br   79.90350  Br.revpbe-n-kjpaw_psl.0.2.UPF 
ATOMIC_POSITIONS (crystal)
C        0.001208515   0.000911152  -0.000010075
C        0.253812799   0.007625598   0.001754431
C        0.499702637   0.000911152  -0.000010075
C        0.747538124  -0.004923752  -0.004490782
C       -0.002707644   0.247640118   0.002361866
C        0.083268338   0.167968424  -0.000083021
C        0.251182857   0.255529085  -0.003727810
C        0.336937391   0.173874783  -0.003478139
C        0.504346229   0.255529085  -0.003727810
C        0.584700085   0.167968424  -0.000083021
C        0.750347762   0.247640118   0.002361866
C        0.830635849   0.161271698   0.000656592
C        0.000193649   0.500387298   0.008257896
C        0.077752772   0.414330987   0.005552945
C        0.240931187   0.499585665   0.001562595
C        0.320445579   0.419710608  -0.005057818
C        0.599265027   0.419710608  -0.005057818
C        0.758654478   0.499585665   0.001562595
C        0.836578214   0.414330987   0.005552945
C        0.006649873   0.754497358   0.006550910
C        0.084189315   0.668378632   0.008977629
C        0.247847486   0.754497358   0.006550910
C        0.325813645   0.669103183   0.001740935
C        0.485136275   0.749249053  -0.005675816
Br       0.543164791   0.586329582  -0.028324075
C        0.764112778   0.749249053  -0.005675816
C        0.843289537   0.669103183   0.001740935
C        0.087065393   0.921113598   0.003287759
C        0.334048205   0.921113598   0.003287759
C        0.580059323   0.913336152  -0.004550049
C        0.833276828   0.913336152  -0.004550049
K_POINTS automatic 
  16 16 1   0 0 0 

