 &CONTROL
                 calculation = 'nscf' ,
                      outdir = './tmp/' ,
                  pseudo_dir = '/home/deleted/pseudo_psl' ,
                      prefix = 'GF_op' ,
                   verbosity = 'high' ,
               etot_conv_thr = 1.0D-5 ,
               forc_conv_thr = 4.0D-4 ,
                       nstep = 1000 ,
                    dipfield = .true. ,
 /
 &SYSTEM
                       ibrav = 4,
                           A = 9.88 ,
                           C = 15 ,
                         nat = 33,
                        ntyp = 3,
                     ecutwfc = 40.424239707 ,
                     ecutrho = 404.24239707 ,
                 occupations = 'tetrahedra' ,
                     degauss = 0.01 ,
				   input_dft = 'vdW-DF' ,
 /
 &ELECTRONS
            electron_maxstep = 50001,
                    conv_thr = 1.0D-6 ,
                 mixing_mode = 'local-TF' ,
                 mixing_beta = 0.5 ,
 /
ATOMIC_SPECIES
    C   12.01100  C.revpbe-n-kjpaw_psl.0.1.UPF 
    F   18.99800  F.revpbe-n-kjpaw_psl.0.1.UPF 
    O   15.99940  O.revpbe-n-kjpaw_psl.0.1.UPF 
ATOMIC_POSITIONS crystal 
C       -0.000059459  -0.001363817   0.011883904
C        0.245064604  -0.009870792   0.009592898
C        0.498695642  -0.001363817   0.011883904
C        0.752725483   0.005450966   0.017944787
C        0.003257579   0.250623730   0.013166166
C        0.084191620   0.165140717   0.011211307
C        0.251130889   0.243908079   0.009972263
C        0.326829579   0.153659160   0.009022670
C        0.492777191   0.243908079   0.009972263
C        0.580949097   0.165140717   0.011211307
C        0.747366151   0.250623730   0.013166166
C        0.834852028   0.169704057   0.014818311
C       -0.001380421   0.497239156   0.013496661
C        0.090423538   0.415967372   0.013444590
C        0.266143606   0.496176649   0.014086800
C        0.347142961   0.405945913   0.011975963
C        0.558802951   0.405945913   0.011975963
C        0.730033045   0.496176649   0.014086800
C        0.825543833   0.415967372   0.013444590
C       -0.007075679   0.743996678   0.012304573
C        0.081283359   0.662566718   0.012217409
C        0.251072357   0.743996678   0.012304573
C        0.341188392   0.664111987   0.015749318
C        0.505261496   0.757536201   0.019162848
F        0.608146625   0.716293252  -0.103233256
C        0.752274705   0.757536201   0.019162848
C        0.822923594   0.664111987   0.015749318
C        0.078205026   0.909883157   0.010831691
C        0.331678130   0.909883157   0.010831691
C        0.586070336   0.921223034   0.017101795
C        0.835152697   0.921223034   0.017101795
O        0.592742897   0.685485794   0.050152902
O        0.603335643   0.706671286   0.152067318
K_POINTS automatic 
  20 20 1   0 0 0 

