 &CONTROL
                 calculation = 'nscf' ,
                      outdir = './tmp/' ,
                  pseudo_dir = '/home/deleted/pseudo_psl' ,
                      prefix = 'GI_op' ,
                   verbosity = 'high' ,
               etot_conv_thr = 1.0D-5 ,
               forc_conv_thr = 4.0D-4 ,
                       nstep = 1000 ,
                    dipfield = .true. ,
 /
 &SYSTEM
                       ibrav = 4,
                           A = 9.88 ,
                           C = 15 ,
                         nat = 33,
                        ntyp = 3,
                     ecutwfc = 40.424239707 ,
                     ecutrho = 404.24239707 ,
                 occupations = 'tetrahedra' ,
                     degauss = 0.01 ,
				   input_dft = 'vdW-DF' ,
    nspin = 2 ,
    starting_magnetization(1) = 0.5,
    starting_magnetization(2) = 0.5,
    starting_magnetization(3) = 0.5,
 /
 &ELECTRONS
            electron_maxstep = 50001,
                    conv_thr = 1.0D-6 ,
                 mixing_mode = 'local-TF' ,
                 mixing_beta = 0.5 ,
 /
ATOMIC_SPECIES
    C   12.01100  C.revpbe-n-kjpaw_psl.0.1.UPF 
    I  126.90400  I.revpbe-n-kjpaw_psl.0.2.UPF 
    O   15.99940  O.revpbe-n-kjpaw_psl.0.1.UPF 
ATOMIC_POSITIONS (crystal)
C       -0.001857271  -0.000843304  -0.003057113
C        0.244417709  -0.011164582  -0.003112059
C        0.501013967  -0.000843304  -0.003057113
C        0.757316599   0.014633198  -0.002899674
C        0.007411502   0.255949413  -0.003435591
C        0.084628073   0.166469088  -0.003327941
C        0.251580927   0.243138074  -0.003835382
C        0.325495294   0.150990590  -0.003462601
C        0.491557147   0.243138074  -0.003835382
C        0.581841013   0.166469088  -0.003327941
C        0.748537911   0.255949413  -0.003435591
C        0.838420288   0.176840578  -0.003085290
C        0.000661703   0.501323408  -0.003963792
C        0.096030800   0.420709183  -0.003995801
C        0.273386169   0.498298204  -0.004438640
C        0.351633308   0.405101948  -0.004544990
C        0.553468640   0.405101948  -0.004544990
C        0.724912034   0.498298204  -0.004438640
C        0.824678381   0.420709183  -0.003995801
C       -0.013248321   0.744906429  -0.003599878
C        0.082139931   0.664279863  -0.003759874
C        0.258154751   0.744906429  -0.003599878
C        0.357885045   0.667122246  -0.004041374
C        0.529471093   0.760372086  -0.003703130
I        0.600357783   0.700715567   0.262234697
C        0.730900992   0.760372086  -0.003703130
C        0.809237199   0.667122246  -0.004041374
C        0.075377391   0.909681263  -0.003157069
C        0.334303872   0.909681263  -0.003157069
C        0.591295932   0.922448817  -0.003131558
C        0.831152885   0.922448817  -0.003131558
O        0.574086698   0.491170580   0.206626096
O        0.417083882   0.491170580   0.206626096
K_POINTS automatic 
  20 20 1   0 0 0 

