 &CONTROL
                 calculation = 'bands' ,
                      outdir = './tmp/' ,
                  pseudo_dir = '/home/deleted/pseudo_psl' ,
                      prefix = 'GF_ip' ,
                   verbosity = 'high' ,
               etot_conv_thr = 1.0D-5 ,
               forc_conv_thr = 4.0D-4 ,
                       nstep = 1000 ,
                    dipfield = .true. ,
 /
 &SYSTEM
                       ibrav = 4,
                           A = 9.88 ,
                           C = 15 ,
                         nat = 34,
                        ntyp = 4,
                     ecutwfc = 40.424239707 ,
                     ecutrho = 404.24239707 ,
                 occupations = 'tetrahedra' ,
                     degauss = 0.01 ,
				   input_dft = 'vdW-DF' ,
 /
 &ELECTRONS
            electron_maxstep = 50001,
                    conv_thr = 1.0D-6 ,
                 mixing_mode = 'local-TF' ,
                 mixing_beta = 0.5 ,
 /
ATOMIC_SPECIES
    C   12.01100  C.revpbe-n-kjpaw_psl.0.1.UPF 
    F   18.99800  F.revpbe-n-kjpaw_psl.0.1.UPF 
    O   15.99940  O.revpbe-n-kjpaw_psl.0.1.UPF 
    H   1.008000  H.revpbe-kjpaw_psl.0.1.UPF
ATOMIC_POSITIONS crystal 
C       -0.002478150  -0.001611677   0.000197509
C        0.247472859  -0.001001150   0.010262886
C        0.497712472   0.000867433   0.013923626
C        0.745455135  -0.002158648   0.002596375
C       -0.002807669   0.248328581   0.008045724
C        0.079469087   0.164244462   0.011135855
C        0.243817913   0.244583262   0.025506349
C        0.329790778   0.165432877   0.013577194
C        0.497234835   0.251095225   0.000221054
C        0.580702098   0.166638558   0.003091612
C        0.746899541   0.249101443  -0.000110098
C        0.830363576   0.164953628   0.002161023
C       -0.001498462   0.499010332   0.002822302
C        0.082034806   0.415865743   0.013393914
C        0.245732861   0.498861710   0.036826149
C        0.314858415   0.401793743   0.059687402
C        0.580396507   0.410276213  -0.019941251
C        0.744493845   0.496483543  -0.017752047
C        0.830938264   0.415558890  -0.005753185
C       -0.002243971   0.749020013  -0.003504231
C        0.080913163   0.665421339   0.006015754
C        0.246564002   0.748626129   0.019207639
C        0.327164619   0.666032371   0.039512218
C        0.495843631   0.761950922   0.058826496
F        0.616374749   0.688710955  -0.071139658
C        0.762361737   0.757793594  -0.034404667
C        0.832876907   0.666533070  -0.021200034
C        0.080223795   0.915021447   0.002622202
C        0.330378124   0.916242151   0.015434174
C        0.581530260   0.919627050   0.019799995
C        0.831855386   0.916421021  -0.011137604
O        0.568167001   0.719611255   0.111006403
O        0.408427626   0.432724302   0.130123847
H        0.473920322   0.552091397   0.137158164
K_POINTS crystal_b 
4
0.0000000000    0.0000000000    0.0000000000 17
0.0000000000    0.5000000000    0.0000000000 10
0.3333333333    0.3333333333    0.0000000000 20
0.0000000000    0.0000000000    0.0000000000 1

