 &CONTROL
                 calculation = 'scf' ,
                      outdir = './tmp/' ,
                  pseudo_dir = '/home/deleted/pseudo_psl' ,
                      prefix = 'GI_ip' ,
                   verbosity = 'high' ,
               etot_conv_thr = 1.0D-5 ,
               forc_conv_thr = 4.0D-4 ,
                       nstep = 1000 ,
                    dipfield = .true. ,
 /
 &SYSTEM
                       ibrav = 4,
                           A = 9.88 ,
                           C = 15 ,
                         nat = 34,
                        ntyp = 4,
                     ecutwfc = 40.424239707 ,
                     ecutrho = 404.24239707 ,
                 occupations = 'smearing' ,
                     degauss = 0.01 ,
				   input_dft = 'vdW-DF' ,
    nspin = 2 ,
    starting_magnetization(1) = 0.5,
    starting_magnetization(2) = 0.5,
    starting_magnetization(3) = 0.5,
 /
 &ELECTRONS
            electron_maxstep = 50001,
                    conv_thr = 1.0D-6 ,
                 mixing_mode = 'local-TF' ,
                 mixing_beta = 0.5 ,
 /
ATOMIC_SPECIES
    C   12.01100  C.revpbe-n-kjpaw_psl.0.1.UPF 
    I  126.90400  I.revpbe-n-kjpaw_psl.0.2.UPF 
    O   15.99940  O.revpbe-n-kjpaw_psl.0.1.UPF 
    H   1.008000  H.revpbe-kjpaw_psl.0.1.UPF
ATOMIC_POSITIONS (crystal)
C        0.002142933   0.002506966  -0.011783191
C        0.254720831   0.009448160  -0.007988483
C        0.500364873   0.002512040  -0.011781438
C        0.748795240  -0.002411984  -0.021685992
C       -0.001845123   0.249359999  -0.004441047
C        0.083951152   0.169675677  -0.011782244
C        0.250827670   0.256023772  -0.023144196
C        0.337298469   0.174598129  -0.021688292
C        0.505195993   0.256025856  -0.023144634
C        0.585725923   0.169681513  -0.011781048
C        0.751206243   0.249363971  -0.004440575
C        0.831371125   0.162742996  -0.007985782
C        0.001041605   0.502089462   0.011597609
C        0.078913702   0.416124068   0.003429366
C        0.240569373   0.500891649  -0.012726032
C        0.315779913   0.419169978  -0.032694243
C        0.603396174   0.419169714  -0.032694048
C        0.760323323   0.500894017  -0.012722489
C        0.837205998   0.416124884   0.003431135
C        0.007172272   0.756058246   0.003427491
C        0.085039946   0.670089145   0.011597380
C        0.248877681   0.756055721   0.003429273
C        0.325767954   0.671284280  -0.012724343
C        0.482703342   0.752998895  -0.032690733
I        0.543044560   0.586061982  -0.079639732
C        0.770302867   0.753000963  -0.032687266
C        0.845516242   0.671284782  -0.012721319
C        0.087936102   0.922822789  -0.004444530
C        0.334882944   0.922827064  -0.004443102
C        0.580894790   0.916157346  -0.023143784
C        0.835263905   0.916154430  -0.023145072
O        0.611176970   0.581540842   0.420643944
O        0.484113789   0.605294833   0.420689339
H        0.532141696   0.719840254   0.420729501
K_POINTS automatic 
  16 16 1   0 0 0 

