 &CONTROL
                 calculation = 'scf' ,
                      outdir = './tmp/' ,
                  pseudo_dir = '/home/deleted/pseudo_psl' ,
                      prefix = 'GI_op' ,
                   verbosity = 'high' ,
               etot_conv_thr = 1.0D-5 ,
               forc_conv_thr = 4.0D-4 ,
                       nstep = 1000 ,
                    dipfield = .true. ,
 /
 &SYSTEM
                       ibrav = 4,
                           A = 9.88 ,
                           C = 15 ,
                         nat = 34,
                        ntyp = 4,
                     ecutwfc = 40.424239707 ,
                     ecutrho = 404.24239707 ,
                 occupations = 'smearing' ,
                     degauss = 0.01 ,
				   input_dft = 'vdW-DF' ,
 /
 &ELECTRONS
            electron_maxstep = 50001,
                    conv_thr = 1.0D-6 ,
                 mixing_mode = 'local-TF' ,
                 mixing_beta = 0.5 ,
 /
ATOMIC_SPECIES
    C   12.01100  C.revpbe-n-kjpaw_psl.0.1.UPF 
    I  126.90400  I.revpbe-n-kjpaw_psl.0.2.UPF 
    O   15.99940  O.revpbe-n-kjpaw_psl.0.1.UPF 
    H   1.008000  H.revpbe-kjpaw_psl.0.1.UPF
ATOMIC_POSITIONS crystal 
C       -0.005678526  -0.013122482  -0.003478607
C        0.240488397  -0.023448436  -0.002661222
C        0.497033051  -0.013122683  -0.003446227
C        0.753081312   0.001641961  -0.004794669
C        0.003002098   0.243220904  -0.003702772
C        0.080528695   0.153942316  -0.003186904
C        0.247508187   0.230809088  -0.002715148
C        0.321789109   0.139130260  -0.002391277
C        0.487766187   0.230876926  -0.002723749
C        0.577918678   0.153993966  -0.003106228
C        0.744805563   0.243228852  -0.003656262
C        0.834391779   0.164212568  -0.004189604
C       -0.003456774   0.488517295  -0.003880779
C        0.091462511   0.408041437  -0.003796639
C        0.269181243   0.486098322  -0.004057163
C        0.347354690   0.393093440  -0.003313260
C        0.550245164   0.393155087  -0.003372439
C        0.721518139   0.486149322  -0.004134618
C        0.821225256   0.408126818  -0.003816307
C       -0.016557729   0.732647574  -0.003870881
C        0.078395032   0.652257563  -0.003887726
C        0.253719071   0.732647469  -0.003883551
C        0.353325475   0.654708622  -0.004471304
C        0.524391419   0.747805868  -0.004417960
I        0.564619465   0.619297576   0.224430891
C        0.727978215   0.747855223  -0.004252907
C        0.806022508   0.654715091  -0.004457040
C        0.071790588   0.897564176  -0.003192728
C        0.330194422   0.897538659  -0.003178375
C        0.587214932   0.910069657  -0.004457113
C        0.827367703   0.910067765  -0.004348717
O        0.864923071   1.052627218   0.203262451
O        0.707542657   0.954241408   0.209519920
H        0.685450090   0.930887742   0.273841933
K_POINTS automatic 
  16 16 1   0 0 0 

