 &CONTROL
                 calculation = 'scf' ,
                      outdir = './tmp_subs/' ,
                  pseudo_dir = '/home/deleted/pseudo_psl' ,
                      prefix = 'GI_ip_subs' ,
                   verbosity = 'high' ,
               etot_conv_thr = 1.0D-5 ,
               forc_conv_thr = 4.0D-4 ,
                       nstep = 1000 ,
                    dipfield = .true. ,
 /
 &SYSTEM
                       ibrav = 4,
                           A = 9.88 ,
                           C = 15 ,
                         nat = 31,
                        ntyp = 2,
                     ecutwfc = 40.424239707 ,
                     ecutrho = 404.24239707 ,
                 occupations = 'smearing' ,
                     degauss = 0.01 ,
				   input_dft = 'vdW-DF' ,
 /
 &ELECTRONS
            electron_maxstep = 50001,
                    conv_thr = 1.0D-6 ,
                 mixing_mode = 'local-TF' ,
                 mixing_beta = 0.5 ,
 /
ATOMIC_SPECIES
    C   12.01100  C.revpbe-n-kjpaw_psl.0.1.UPF 
    I  126.90400  I.revpbe-n-kjpaw_psl.0.2.UPF 
ATOMIC_POSITIONS crystal 
C        0.005397377   0.007879506   0.000308279
C        0.257761696   0.014670436   0.003016566
C        0.503452443   0.007457722  -0.001329671
C        0.751451981   0.002294254  -0.010218024
C        0.001086646   0.254418886   0.005378752
C        0.087112344   0.174834029  -0.001644481
C        0.253713102   0.261344409  -0.013962915
C        0.340281562   0.180006079  -0.010542980
C        0.508381961   0.261218798  -0.010121556
C        0.588589971   0.174397440   0.000631928
C        0.754106720   0.254192618   0.007976490
C        0.834215660   0.167620075   0.003360713
C        0.004403142   0.506990693   0.021440482
C        0.082084036   0.421226509   0.011420890
C        0.243109118   0.506046773  -0.006979380
C        0.317930919   0.423975978  -0.026992927
C        0.605975288   0.424525879  -0.017078722
C        0.762731210   0.505878699   0.002859155
C        0.840144322   0.420773419   0.016395186
C        0.010557818   0.761488438   0.016122239
C        0.088563437   0.675271120   0.021320521
C        0.252014319   0.761078325   0.011377045
C        0.328285056   0.676309974  -0.006946094
C        0.485177987   0.758407627  -0.026932976
I        0.548249141   0.591212442  -0.067045521
C        0.772497008   0.757714571  -0.016831741
C        0.847988262   0.676361348   0.002847607
C        0.091102958   0.928053867   0.007518169
C        0.337824694   0.927873232   0.005364218
C        0.583560008   0.920956375  -0.013633326
C        0.838317009   0.921064281  -0.010020826
K_POINTS automatic 
  16 16 1   0 0 0 

