 &CONTROL
                 calculation = 'scf' ,
                      outdir = './tmp/' ,
                  pseudo_dir = '/home/deleted/pseudo_psl' ,
                      prefix = 'GI_op' ,
                   verbosity = 'high' ,
               etot_conv_thr = 1.0D-5 ,
               forc_conv_thr = 4.0D-4 ,
                       nstep = 1000 ,
                    dipfield = .true. ,
 /
 &SYSTEM
                       ibrav = 4,
                           A = 9.88 ,
                           C = 15 ,
                         nat = 34,
                        ntyp = 4,
                     ecutwfc = 40.424239707 ,
                     ecutrho = 404.24239707 ,
                 occupations = 'smearing' ,
                     degauss = 0.01 ,
				   input_dft = 'vdW-DF' ,
    nspin = 2 ,
    starting_magnetization(1) = 0.5,
    starting_magnetization(2) = 0.5,
    starting_magnetization(3) = 0.5,
 /
 &ELECTRONS
            electron_maxstep = 50001,
                    conv_thr = 1.0D-6 ,
                 mixing_mode = 'local-TF' ,
                 mixing_beta = 0.5 ,
 /
ATOMIC_SPECIES
    C   12.01100  C.revpbe-n-kjpaw_psl.0.1.UPF 
    I  126.90400  I.revpbe-n-kjpaw_psl.0.2.UPF 
    O   15.99940  O.revpbe-n-kjpaw_psl.0.1.UPF 
    H   1.008000  H.revpbe-kjpaw_psl.0.1.UPF
ATOMIC_POSITIONS (crystal)
C        0.004664776  -0.001020710  -0.008209685
C        0.250946103  -0.011327043  -0.009150120
C        0.507501382  -0.001001766  -0.009874296
C        0.763539246   0.013954442  -0.008639515
C        0.013569369   0.255537938  -0.008093044
C        0.091032665   0.166183057  -0.008022833
C        0.257972277   0.242888791  -0.008426020
C        0.332281195   0.151376419  -0.008982245
C        0.498107059   0.242881125  -0.008967337
C        0.588323534   0.166166221  -0.009091132
C        0.755136296   0.255527354  -0.008651125
C        0.844865851   0.176554456  -0.008215193
C        0.007025882   0.500858913  -0.009309722
C        0.102111666   0.420489443  -0.008974126
C        0.279340166   0.498412885  -0.009632878
C        0.357746667   0.405278874  -0.008390202
C        0.560719690   0.405280026  -0.008584058
C        0.732281049   0.498411648  -0.009796722
C        0.831567714   0.420496288  -0.009197371
C       -0.006222052   0.744843775  -0.009490349
C        0.088834920   0.664463775  -0.009648409
C        0.264259389   0.744865983  -0.009942102
C        0.363914303   0.666868635  -0.010149055
C        0.535375075   0.759888834  -0.009910208
I        0.499767798   0.481686977   0.207159017
C        0.737646723   0.759850493  -0.009237994
C        0.816139109   0.666849778  -0.009832994
C        0.082260568   0.909707427  -0.008837076
C        0.340643562   0.909724549  -0.009835522
C        0.597615990   0.922153015  -0.009771600
C        0.837658343   0.922118836  -0.008463720
O        0.443999458   0.915883491   0.209265893
O        0.569418196   0.916386545   0.208854271
H        0.512022373   0.903416945   0.412938198
K_POINTS automatic 
  16 16 1   0 0 0 

