 &CONTROL
                 calculation = 'bands' ,
                      outdir = './tmp/' ,
                  pseudo_dir = '/home/deleted/pseudo_psl' ,
                      prefix = 'GBr_ip' ,
                   verbosity = 'high' ,
               etot_conv_thr = 1.0D-5 ,
               forc_conv_thr = 4.0D-4 ,
                       nstep = 1000 ,
                    dipfield = .true. ,
 /
 &SYSTEM
                       ibrav = 4,
                           A = 9.88 ,
                           C = 15 ,
                         nat = 32,
                        ntyp = 3,
                     ecutwfc = 40.424239707 ,
                     ecutrho = 404.24239707 ,
                 occupations = 'tetrahedra' ,
                     degauss = 0.01 ,
				   input_dft = 'vdW-DF' ,
 /
 &ELECTRONS
            electron_maxstep = 50001,
                    conv_thr = 1.0D-6 ,
                 mixing_mode = 'local-TF' ,
                 mixing_beta = 0.5 ,
 /
ATOMIC_SPECIES
    C   12.01100  C.revpbe-n-kjpaw_psl.0.1.UPF 
   Br   79.90350  Br.revpbe-n-kjpaw_psl.0.2.UPF 
    O   15.99940  O.revpbe-n-kjpaw_psl.0.1.UPF 
ATOMIC_POSITIONS crystal 
C       -0.001349064  -0.001061095  -0.002164536
C        0.253543439   0.005438800  -0.000714953
C        0.501145404   0.004541297   0.007863979
C        0.746543634  -0.003093551   0.004561750
C       -0.002751015   0.248516533   0.006049891
C        0.079758835   0.165149189   0.003792229
C        0.246182253   0.250256414  -0.004617498
C        0.334769892   0.171545766  -0.010286796
C        0.502051833   0.256173219  -0.015311746
C        0.584515714   0.170732291  -0.004218540
C        0.750258172   0.250742517  -0.000230185
C        0.830690672   0.163959698   0.003178140
C        0.000850956   0.501677219   0.008175747
C        0.079159627   0.415363678   0.013337842
C        0.245380703   0.500352895   0.016622438
C        0.313731267   0.411841754  -0.006931161
C        0.598563516   0.419974511  -0.025385828
C        0.758907027   0.502678281  -0.017885561
C        0.836546867   0.417397049  -0.002208534
C        0.006896251   0.754145488  -0.002682795
C        0.086445540   0.668916426   0.006164631
C        0.251719037   0.753377265   0.013494307
C        0.330845060   0.668764845   0.026599316
C        0.493808486   0.761150633   0.058638073
Br       0.522701761   0.563275852  -0.058668954
C        0.765980111   0.753627349  -0.031114445
C        0.843912512   0.672053871  -0.018484920
C        0.086088483   0.919904984  -0.002036684
C        0.334514552   0.921388553   0.008612204
C        0.582760709   0.921287788   0.019782508
C        0.831365698   0.912932636  -0.009053611
O        0.552353133   0.713427794   0.115123692
K_POINTS crystal_b 
4
0.0000000000    0.0000000000    0.0000000000 17
0.0000000000    0.5000000000    0.0000000000 10
0.3333333333    0.3333333333    0.0000000000 20
0.0000000000    0.0000000000    0.0000000000 1

