 &CONTROL
                 calculation = 'bands' ,
                      outdir = './tmp/' ,
                  pseudo_dir = '/home/deleted/pseudo_psl' ,
                      prefix = 'GBr_op' ,
                   verbosity = 'high' ,
               etot_conv_thr = 1.0D-5 ,
               forc_conv_thr = 4.0D-4 ,
                       nstep = 1000 ,
                    dipfield = .true. ,
 /
 &SYSTEM
                       ibrav = 4,
                           A = 9.88 ,
                           C = 15 ,
                         nat = 34,
                        ntyp = 4,
                     ecutwfc = 40.424239707 ,
                     ecutrho = 404.24239707 ,
                 occupations = 'tetrahedra' ,
                     degauss = 0.01 ,
				   input_dft = 'vdW-DF' ,
 /
 &ELECTRONS
            electron_maxstep = 50001,
                    conv_thr = 1.0D-6 ,
                 mixing_mode = 'local-TF' ,
                 mixing_beta = 0.5 ,
 /
ATOMIC_SPECIES
    C   12.01100  C.revpbe-n-kjpaw_psl.0.1.UPF 
   Br   79.90350  Br.revpbe-n-kjpaw_psl.0.2.UPF 
    O   15.99940  O.revpbe-n-kjpaw_psl.0.1.UPF 
    H   1.008000  H.revpbe-kjpaw_psl.0.1.UPF
ATOMIC_POSITIONS crystal 
C       -0.011066274   0.012046420  -0.004825703
C        0.235490492   0.003437371  -0.002322178
C        0.490048138   0.011928874   0.003690943
C        0.742490599   0.021107162   0.002076917
C       -0.006747870   0.265770304  -0.005237093
C        0.073803587   0.179305729  -0.004135994
C        0.241534158   0.258534559  -0.004454053
C        0.317051742   0.167167048  -0.002879693
C        0.482309124   0.257415538  -0.003175346
C        0.571063038   0.178991026  -0.001217868
C        0.737447211   0.266084446  -0.002577269
C        0.825094800   0.185937299  -0.002329305
C       -0.011792774   0.512120911  -0.007308246
C        0.079808296   0.430957452  -0.006620046
C        0.256369471   0.511783103  -0.004133353
C        0.338084932   0.420356178  -0.004791506
C        0.548333583   0.420562321  -0.005508808
C        0.718765508   0.511099004  -0.007366860
C        0.814781366   0.431567277  -0.005735831
C       -0.019355210   0.758318583  -0.007641846
C        0.070731787   0.676714997  -0.007380202
C        0.242019787   0.756660882  -0.003005642
C        0.331876492   0.676997724   0.001319384
C        0.501747188   0.766551619   0.029997616
Br       0.768308651   0.629874591   0.243742843
C        0.731669073   0.770290078  -0.010370745
C        0.807694712   0.680183133  -0.009053706
C        0.066979378   0.923360839  -0.005548254
C        0.322209179   0.923723014   0.001034868
C        0.579303112   0.936038404   0.011101098
C        0.821807876   0.932189500  -0.004730218
O        0.884997271   0.576078902   0.176363292
O        0.505435527   0.719087726   0.117464481
H        0.613283391   0.763335991   0.138329891
K_POINTS automatic  
4
0.0000000000    0.0000000000    0.0000000000 17
0.0000000000    0.5000000000    0.0000000000 10
0.3333333333    0.3333333333    0.0000000000 20
0.0000000000    0.0000000000    0.0000000000 1

