 &CONTROL
                 calculation = 'relax' ,
                      outdir = './tmp/' ,
                  pseudo_dir = '/home/deleted/pseudo_psl' ,
                      prefix = 'GBr_ip' ,
                   verbosity = 'high' ,
               etot_conv_thr = 1.0D-5 ,
               forc_conv_thr = 4.0D-4 ,
                       nstep = 1000 ,
                    dipfield = .true. ,
 /
 &SYSTEM
                       ibrav = 4,
                           A = 9.88 ,
                           C = 15 ,
                         nat = 34,
                        ntyp = 4,
                     ecutwfc = 40.424239707 ,
                     ecutrho = 404.24239707 ,
                 occupations = 'smearing' ,
                     degauss = 0.01 ,
				   input_dft = 'vdW-DF' ,
 /
 &ELECTRONS
            electron_maxstep = 50001,
                    conv_thr = 1.0D-6 ,
                 mixing_mode = 'local-TF' ,
                 mixing_beta = 0.5 ,
 /
 &IONS
                ion_dynamics = 'bfgs' ,
 /
ATOMIC_SPECIES
    C   12.01100  C.revpbe-n-kjpaw_psl.0.1.UPF 
   Br   79.90350  Br.revpbe-n-kjpaw_psl.0.2.UPF 
    O   15.99940  O.revpbe-n-kjpaw_psl.0.1.UPF 
    H   1.008000  H.revpbe-kjpaw_psl.0.1.UPF
ATOMIC_POSITIONS crystal 
C        0.001767140   0.018352353   0.010467761
C        0.250653461   0.016994292   0.008623852
C        0.500720603   0.018406988   0.017196718
C        0.753077974   0.020951227   0.017100238
C        0.001719876   0.268524069   0.022077082
C        0.084994407   0.184299093   0.018256488
C        0.250047431   0.264149265   0.023923395
C        0.333341390   0.183490588   0.007953449
C        0.501288562   0.265353540  -0.004586558
C        0.585170838   0.184958926   0.011587406
C        0.751495161   0.269033729   0.013058844
C        0.836380223   0.186648512   0.018117081
C        0.000945106   0.518781050   0.015161170
C        0.085662726   0.436251703   0.023933076
C        0.250633742   0.517668205   0.034727898
C        0.322876881   0.423606036   0.062369836
C        0.590167118   0.421125272  -0.034701210
C        0.748823260   0.515601005  -0.010673443
C        0.833323979   0.434816326   0.008673859
C       -0.001681215   0.767202300   0.005214048
C        0.084447470   0.684701264   0.011355798
C        0.252844405   0.767364804   0.016050444
C        0.338167511   0.683607546   0.026000585
C        0.506201921   0.773421286   0.021292070
Br       0.502860156   0.483594510  -0.132826977
C        0.751747613   0.772932041   0.006777671
C        0.829769000   0.684504544  -0.002985315
C        0.083316236   0.933817605   0.008757242
C        0.334976791   0.933843042   0.012074147
C        0.586076606   0.937156957   0.019317080
C        0.835501464   0.937199284   0.011915666
O        0.591052922   0.697022335   0.014158113
O        0.427218211   0.468429479   0.119632486
H        0.59294746    0.532861794   0.089011736
K_POINTS automatic 
  4 4 1   0 0 0 

