 &CONTROL
                 calculation = 'scf' ,
                      outdir = './tmp/' ,
                  pseudo_dir = '/home/deleted/pseudo_psl' ,
                      prefix = 'GI_ip' ,
                   verbosity = 'high' ,
               etot_conv_thr = 1.0D-5 ,
               forc_conv_thr = 4.0D-4 ,
                       nstep = 1000 ,
                    dipfield = .true. ,
 /
 &SYSTEM
                       ibrav = 4,
                           A = 9.88 ,
                           C = 15 ,
                         nat = 33,
                        ntyp = 3,
                     ecutwfc = 40.424239707 ,
                     ecutrho = 404.24239707 ,
                 occupations = 'smearing' ,
                     degauss = 0.01 ,
				   input_dft = 'vdW-DF' ,
    nspin = 2 ,
    starting_magnetization(1) = 0.5,
    starting_magnetization(2) = 0.5,
    starting_magnetization(3) = 0.5,
 /
 &ELECTRONS
            electron_maxstep = 50001,
                    conv_thr = 1.0D-6 ,
                 mixing_mode = 'local-TF' ,
                 mixing_beta = 0.5 ,
 /
ATOMIC_SPECIES
    C   12.01100  C.revpbe-n-kjpaw_psl.0.1.UPF 
    I  126.90400  I.revpbe-n-kjpaw_psl.0.2.UPF 
    O   15.99940  O.revpbe-n-kjpaw_psl.0.1.UPF 
ATOMIC_POSITIONS (crystal)
C        0.004050186   0.007249564  -0.001270448
C        0.256565620   0.014120835   0.001938377
C        0.502166149   0.006963456  -0.002599715
C        0.750461263   0.002002870  -0.011949833
C       -0.000105609   0.253979541   0.004517906
C        0.085803646   0.174345063  -0.002457456
C        0.252570165   0.260732543  -0.014313363
C        0.339085876   0.179334838  -0.011695666
C        0.507044161   0.260695572  -0.012230724
C        0.587430692   0.174075857  -0.001369671
C        0.752926841   0.253828874   0.006005805
C        0.833051433   0.167214446   0.001748055
C        0.003048574   0.506639983   0.020826331
C        0.080795440   0.420815980   0.011321348
C        0.242012749   0.505504998  -0.006254873
C        0.317079601   0.423541271  -0.025825365
C        0.605055578   0.423985064  -0.020333496
C        0.761818878   0.505496677  -0.000311592
C        0.838944643   0.420496100   0.014438289
C        0.009196235   0.760855293   0.014400432
C        0.087138888   0.674695848   0.020829795
C        0.250728698   0.760507013   0.011333066
C        0.327230453   0.675814035  -0.006294780
C        0.484188053   0.757769942  -0.026115465
I        0.546259813   0.590601580  -0.069279322
C        0.771940655   0.757430425  -0.020738595
C        0.847109935   0.675910637  -0.000463370
C        0.089839640   0.927532758   0.006137760
C        0.336657770   0.927336662   0.004543442
C        0.582539230   0.920555598  -0.014561925
C        0.837107413   0.920676081  -0.012423985
O        0.430817981   0.605703415   0.190062908
O        0.537665128   0.591415425   0.152386130
K_POINTS automatic 
  16 16 1   0 0 0 

