 &CONTROL
                 calculation = 'nscf' ,
                      outdir = './tmp/' ,
                  pseudo_dir = '/home/deleted/pseudo_psl' ,
                      prefix = 'GI_ip' ,
                   verbosity = 'high' ,
               etot_conv_thr = 1.0D-5 ,
               forc_conv_thr = 4.0D-4 ,
                       nstep = 1000 ,
                    dipfield = .true. ,
 /
 &SYSTEM
                       ibrav = 4,
                           A = 9.88 ,
                           C = 15 ,
                         nat = 34,
                        ntyp = 4,
                     ecutwfc = 40.424239707 ,
                     ecutrho = 404.24239707 ,
                 occupations = 'tetrahedra' ,
                     degauss = 0.01 ,
				   input_dft = 'vdW-DF' ,
    nspin = 2 ,
    starting_magnetization(1) = 0.5,
    starting_magnetization(2) = 0.5,
    starting_magnetization(3) = 1.00,
 /
 &ELECTRONS
            electron_maxstep = 50001,
                    conv_thr = 1.0D-6 ,
                 mixing_mode = 'local-TF' ,
                 mixing_beta = 0.5 ,
 /
ATOMIC_SPECIES
    C   12.01100  C.revpbe-n-kjpaw_psl.0.1.UPF 
    I  126.90400  I.revpbe-n-kjpaw_psl.0.2.UPF 
    O   15.99940  O.revpbe-n-kjpaw_psl.0.1.UPF 
    H   1.008000  H.revpbe-kjpaw_psl.0.1.UPF
ATOMIC_POSITIONS (crystal)
C        0.000248403   0.002533319   0.004612109
C        0.253044878   0.009807533   0.008450193
C        0.498551272   0.002695675   0.005219945
C        0.746797941  -0.002783810  -0.004551359
C       -0.003789186   0.249215187   0.012432813
C        0.081971802   0.169528521   0.005104508
C        0.248837737   0.256254023  -0.006001727
C        0.335693937   0.175038869  -0.004761319
C        0.503615988   0.256298646  -0.006464115
C        0.583790585   0.169700627   0.004864094
C        0.749359089   0.249262646   0.011923069
C        0.829319413   0.162381150   0.008862619
C       -0.000865191   0.502053160   0.026797174
C        0.076864623   0.415827696   0.019951861
C        0.238816108   0.500849468   0.004862475
C        0.313930306   0.419270186  -0.014688948
C        0.601639917   0.419445354  -0.016213580
C        0.758881874   0.501013544   0.002269157
C        0.835361411   0.416021429   0.018627090
C        0.005571779   0.756262948   0.018147627
C        0.083168120   0.670183671   0.026522791
C        0.247128104   0.756382318   0.019721796
C        0.324069157   0.671386508   0.004841145
C        0.480833702   0.752961537  -0.014392541
I        0.540702186   0.586004737  -0.059665306
C        0.768742186   0.752972418  -0.017009200
C        0.844025078   0.671308607   0.001996197
C        0.086205863   0.922955301   0.011368017
C        0.333067556   0.923037449   0.012208911
C        0.578682258   0.915912510  -0.005769196
C        0.833410138   0.915801333  -0.006617047
O        0.517086452   0.551421802   0.133840553
O        0.662022284   0.611689531   0.181515294
H        0.641319184   0.524032036   0.220705055
K_POINTS automatic 
  20 20 1   0 0 0 

