 &CONTROL
                 calculation = 'nscf' ,
                      outdir = './tmp/' ,
                  pseudo_dir = '/home/deleted/pseudo_psl' ,
                      prefix = 'GF_op' ,
                   verbosity = 'high' ,
               etot_conv_thr = 1.0D-5 ,
               forc_conv_thr = 4.0D-4 ,
                       nstep = 1000 ,
                    dipfield = .true. ,
 /
 &SYSTEM
                       ibrav = 4,
                           A = 9.88 ,
                           C = 15 ,
                         nat = 34,
                        ntyp = 4,
                     ecutwfc = 40.424239707 ,
                     ecutrho = 404.24239707 ,
                 occupations = 'tetrahedra' ,
                     degauss = 0.01 ,
				   input_dft = 'vdW-DF' ,
 /
 &ELECTRONS
            electron_maxstep = 50001,
                    conv_thr = 1.0D-6 ,
                 mixing_mode = 'local-TF' ,
                 mixing_beta = 0.5 ,
 /
ATOMIC_SPECIES
    C   12.01100  C.revpbe-n-kjpaw_psl.0.1.UPF 
    F   18.99800  F.revpbe-n-kjpaw_psl.0.1.UPF 
    O   15.99940  O.revpbe-n-kjpaw_psl.0.1.UPF 
	H   1.00800   H.revpbe-kjpaw_psl.0.1.UPF
ATOMIC_POSITIONS crystal 
C       -0.003763643  -0.003371287   0.011960444
C        0.243226296  -0.009881129   0.005467662
C        0.495974604  -0.004235459   0.007451872
C        0.750111839   0.002302071   0.015501756
C       -0.001048369   0.248685158   0.012135741
C        0.079597872   0.162703853   0.013224235
C        0.243906495   0.240851747   0.005447012
C        0.327014335   0.155492953   0.004972584
C        0.490531275   0.237131422   0.008977291
C        0.578114209   0.161809791   0.009284600
C        0.746499170   0.248556204   0.012531827
C        0.831725051   0.168123728   0.014561448
C       -0.002445086   0.496393003   0.008592152
C        0.084673926   0.414210693   0.007968194
C        0.254035075   0.494359657   0.001731308
C        0.327266066   0.402053527  -0.009213962
C        0.565551025   0.409179729   0.019976935
C        0.743565593   0.498652051   0.008573734
C        0.828853483   0.415058479   0.010290998
C       -0.006011230   0.743811034   0.006377468
C        0.080585593   0.661956752   0.006336977
C        0.249719495   0.743666123   0.006899514
C        0.338429999   0.662977730   0.008927165
C        0.503517718   0.754864786   0.019856696
F        0.704981009   0.738944846  -0.101269346
C        0.740675512   0.752153528  -0.005181173
C        0.825420367   0.660364351   0.007481846
C        0.077601050   0.909936131   0.006883091
C        0.329648258   0.909426199   0.006554100
C        0.582182326   0.917275435   0.013127021
C        0.833173483   0.921573961   0.011880699
O        0.595494689   0.689670298   0.042192809
O        0.479252607   0.459812414  -0.039536866
H        0.543167953   0.434339525   0.088702715
K_POINTS automatic 
  20 20 1   0 0 0 