 &CONTROL
                 calculation = 'bands' ,
                      outdir = './tmp/' ,
                  pseudo_dir = '/home/deleted/pseudo_psl' ,
                      prefix = 'GBr_ip' ,
                   verbosity = 'high' ,
               etot_conv_thr = 1.0D-5 ,
               forc_conv_thr = 4.0D-4 ,
                       nstep = 1000 ,
                    dipfield = .true. ,
 /
 &SYSTEM
                       ibrav = 4,
                           A = 9.88 ,
                           C = 15 ,
                         nat = 32,
                        ntyp = 3,
                     ecutwfc = 40.424239707 ,
                     ecutrho = 404.24239707 ,
                 occupations = 'tetrahedra' ,
                     degauss = 0.01 ,
				   input_dft = 'vdW-DF' ,
    nspin = 2 ,
    starting_magnetization(1) = 0.5,
    starting_magnetization(2) = 0.5,
    starting_magnetization(3) = 0.5,
 /
 &ELECTRONS
            electron_maxstep = 50001,
                    conv_thr = 1.0D-6 ,
                 mixing_mode = 'local-TF' ,
                 mixing_beta = 0.5 ,
 /
ATOMIC_SPECIES
    C   12.01100  C.revpbe-n-kjpaw_psl.0.1.UPF 
   Br   79.90350  Br.revpbe-n-kjpaw_psl.0.2.UPF 
    O   15.99940  O.revpbe-n-kjpaw_psl.0.1.UPF 
ATOMIC_POSITIONS (crystal)
C        0.001983053   0.002368588  -0.002474114
C        0.254699588   0.009399176  -0.005852768
C        0.500385536   0.002368588  -0.002474114
C        0.748329399  -0.003341201   0.002739639
C       -0.001846986   0.249279143  -0.007569161
C        0.084032665   0.169672359  -0.002481852
C        0.252095642   0.257252913   0.004017223
C        0.337688548   0.175377097   0.002711754
C        0.505157272   0.257252913   0.004017223
C        0.585639694   0.169672359  -0.002481852
C        0.751126129   0.249279143  -0.007569161
C        0.831319079   0.162638158  -0.005836596
C        0.001105459   0.502210919  -0.018154767
C        0.078862564   0.416159618  -0.012625738
C        0.241186313   0.501150428  -0.001700911
C        0.319081328   0.420692894   0.011992540
C        0.601611564   0.420692894   0.011992540
C        0.759964116   0.501150428  -0.001700911
C        0.837297053   0.416159618  -0.012625738
C        0.007159510   0.755886873  -0.012628564
C        0.084921115   0.669842231  -0.018167242
C        0.248727365   0.755886873  -0.012628564
C        0.326054672   0.670881479  -0.001694190
C        0.484403960   0.751339628   0.011997952
Br       0.543009629   0.586019259   0.029882042
C        0.766935668   0.751339628   0.011997952
C        0.844826806   0.670881479  -0.001694190
C        0.087860500   0.922761131  -0.007573323
C        0.334900630   0.922761131  -0.007573323
C        0.580860090   0.914780517   0.004038526
C        0.833920426   0.914780517   0.004038526
O        0.543022598   0.586045197   0.146081167
K_POINTS automatic 
  20 20 1   0 0 0 

