 &CONTROL
                 calculation = 'bands' ,
                      outdir = './tmp/' ,
                  pseudo_dir = '/home/deleted/pseudo_psl' ,
                      prefix = 'GCl_op' ,
                   verbosity = 'high' ,
               etot_conv_thr = 1.0D-5 ,
               forc_conv_thr = 4.0D-4 ,
                       nstep = 1000 ,
                    dipfield = .true. ,
 /
 &SYSTEM
                       ibrav = 4,
                           A = 9.88 ,
                           C = 15 ,
                         nat = 33,
                        ntyp = 3,
                     ecutwfc = 40.424239707 ,
                     ecutrho = 404.24239707 ,
                 occupations = 'tetrahedra' ,
                     degauss = 0.01 ,
				   input_dft = 'vdW-DF' ,
    nspin = 2 ,
    starting_magnetization(1) = 0.5,
    starting_magnetization(2) = 0.5,
    starting_magnetization(3) = 0.5,
 /
 &ELECTRONS
            electron_maxstep = 50001,
                    conv_thr = 1.0D-6 ,
                 mixing_mode = 'local-TF' ,
                 mixing_beta = 0.5 ,
 /
ATOMIC_SPECIES
    C   12.01100  C.revpbe-n-kjpaw_psl.0.1.UPF 
   Cl   35.45200  Cl.revpbe-n-kjpaw_psl.0.3.0.UPF 
    O   15.99940  O.revpbe-n-kjpaw_psl.0.1.UPF 
ATOMIC_POSITIONS (crystal)
C        0.012066379   0.007890418  -0.002266212
C        0.257515906   0.001382549  -0.010889743
C        0.509388961   0.007898966  -0.002052771
C        0.763143490   0.012731547   0.016793195
C        0.013150705   0.258328523  -0.001440372
C        0.095350164   0.174297414  -0.005826489
C        0.262602244   0.254067560  -0.010365495
C        0.339099882   0.164591268  -0.012525146
C        0.505080061   0.254080343  -0.010441378
C        0.592564646   0.174294787  -0.005738129
C        0.758806860   0.258283888  -0.001298602
C        0.845093578   0.176547738   0.004576536
C        0.009717963   0.505729233  -0.003309884
C        0.099241891   0.423908881  -0.002729261
C        0.272779378   0.504542198  -0.001036990
C        0.354688290   0.416294188  -0.006644890
C        0.575079657   0.416314097  -0.006657872
C        0.745332210   0.504475959  -0.000573897
C        0.838365393   0.423879356  -0.002475218
C        0.007279005   0.753545569  -0.005243611
C        0.092246167   0.670746357  -0.007640958
C        0.260051737   0.753584356  -0.005686441
C        0.346452108   0.672431258   0.005945875
C        0.504080428   0.768251772   0.026756929
Cl       0.601005888   0.689176010   0.090611507
C        0.777125620   0.768158923   0.026249319
C        0.839671223   0.672451046   0.006538525
C        0.090636705   0.919863643  -0.006938733
C        0.342844296   0.919837350  -0.007013352
C        0.595048376   0.929854954   0.015768745
C        0.848259713   0.929769196   0.015290508
O        0.255068149   0.641752365   0.217191132
O        0.351903354   0.593358715   0.222076309
K_POINTS automatic 
  20 20 1   0 0 0 

