 &CONTROL
                 calculation = 'scf' ,
                      outdir = './tmp_subs/' ,
                  pseudo_dir = '/home/deleted/pseudo_psl' ,
                      prefix = 'GI_ip_subs' ,
                   verbosity = 'high' ,
               etot_conv_thr = 1.0D-5 ,
               forc_conv_thr = 4.0D-4 ,
                       nstep = 1000 ,
                    dipfield = .true. ,
 /
 &SYSTEM
                       ibrav = 4,
                           A = 9.88 ,
                           C = 15 ,
                         nat = 31,
                        ntyp = 2,
                     ecutwfc = 40.424239707 ,
                     ecutrho = 404.24239707 ,
                 occupations = 'smearing' ,
                     degauss = 0.01 ,
				   input_dft = 'vdW-DF' ,
 /
 &ELECTRONS
            electron_maxstep = 50001,
                    conv_thr = 1.0D-6 ,
                 mixing_mode = 'local-TF' ,
                 mixing_beta = 0.5 ,
 /
ATOMIC_SPECIES
    C   12.01100  C.revpbe-n-kjpaw_psl.0.1.UPF 
    I  126.90400  I.revpbe-n-kjpaw_psl.0.2.UPF 
ATOMIC_POSITIONS crystal 
C       -0.000153782   0.002632575   0.006638125
C        0.252215649   0.009399697   0.009207092
C        0.497930941   0.002245362   0.004541842
C        0.745904128  -0.002934451  -0.004271150
C       -0.004437000   0.249168301   0.011284181
C        0.081589697   0.169564725   0.004462879
C        0.248162329   0.256047699  -0.007953925
C        0.334739030   0.174735207  -0.004330093
C        0.502845470   0.255993448  -0.003756167
C        0.583108135   0.169179251   0.006676698
C        0.748648820   0.248998905   0.013873532
C        0.828708539   0.162407612   0.009220841
C       -0.001059461   0.501761326   0.027316372
C        0.076549411   0.415972668   0.017162927
C        0.237535660   0.500754366  -0.001325585
C        0.312287425   0.418603278  -0.021350326
C        0.600354257   0.419345477  -0.010367130
C        0.757171760   0.500662232   0.009396490
C        0.834681720   0.415543664   0.022472735
C        0.005050409   0.756265022   0.022467987
C        0.083077566   0.670039290   0.027327756
C        0.246480563   0.755816990   0.017216937
C        0.322671812   0.671024582  -0.001269336
C        0.479620575   0.753168742  -0.021134665
I        0.542900752   0.585927805  -0.060897544
C        0.766917515   0.752468306  -0.010338673
C        0.842420526   0.671149138   0.009395704
C        0.085559193   0.922806923   0.013848529
C        0.332299116   0.922634844   0.011341203
C        0.578028899   0.915763731  -0.007826852
C        0.832765367   0.915816016  -0.003743692
K_POINTS automatic 
  16 16 1   0 0 0 

