 &CONTROL
                 calculation = 'bands' ,
                      outdir = './tmp/' ,
                  pseudo_dir = '/home/deleted/pseudo_psl' ,
                      prefix = 'GF_op' ,
                   verbosity = 'high' ,
               etot_conv_thr = 1.0D-5 ,
               forc_conv_thr = 4.0D-4 ,
                       nstep = 1000 ,
                    dipfield = .true. ,
 /
 &SYSTEM
                       ibrav = 4,
                           A = 9.88 ,
                           C = 15 ,
                         nat = 33,
                        ntyp = 3,
                     ecutwfc = 40.424239707 ,
                     ecutrho = 404.24239707 ,
                 occupations = 'tetrahedra' ,
                     degauss = 0.01 ,
				   input_dft = 'vdW-DF' ,
    nspin = 2 ,
    starting_magnetization(1) = 0.5,
    starting_magnetization(2) = 0.5,
    starting_magnetization(3) = 0.5,
 /
 &ELECTRONS
            electron_maxstep = 50001,
                    conv_thr = 1.0D-6 ,
                 mixing_mode = 'local-TF' ,
                 mixing_beta = 0.5 ,
 /
ATOMIC_SPECIES
    C   12.01100  C.revpbe-n-kjpaw_psl.0.1.UPF 
    F   18.99800  F.revpbe-n-kjpaw_psl.0.1.UPF 
    O   15.99940  O.revpbe-n-kjpaw_psl.0.1.UPF 
ATOMIC_POSITIONS (crystal)
C        0.002458172   0.000785366   0.001089668
C        0.246239960  -0.007520082  -0.000906712
C        0.498327194   0.000785366   0.001089668
C        0.753284747   0.006569496   0.005967926
C        0.003507326   0.251530697   0.002121592
C        0.085514998   0.167015665   0.000783333
C        0.252293112   0.245359425  -0.000316895
C        0.327626234   0.155252470  -0.000902801
C        0.493066314   0.245359425  -0.000316895
C        0.581500666   0.167015665   0.000783333
C        0.748023371   0.251530697   0.002121592
C        0.835357608   0.170715218   0.003606556
C       -0.001029407   0.497941185   0.001232601
C        0.090024608   0.416771345   0.001590658
C        0.264490168   0.496012334   0.001606978
C        0.347350197   0.407422161   0.000496189
C        0.560071963   0.407422161   0.000496189
C        0.731522168   0.496012334   0.001606978
C        0.826746736   0.416771345   0.001590658
C       -0.003991284   0.745420437   0.000078000
C        0.081493704   0.662987410  -0.000174612
C        0.249411720   0.745420437   0.000078000
C        0.337646382   0.663842431   0.002340120
C        0.496828629   0.763483165   0.005309614
F        0.589777723   0.679555447   0.019983577
C        0.766654536   0.763483165   0.005309614
C        0.826196048   0.663842431   0.002340120
C        0.079620239   0.911536438  -0.000192072
C        0.331916197   0.911536438  -0.000192072
C        0.586941360   0.923192135   0.004849095
C        0.836250775   0.923192135   0.004849095
O        0.659752153   0.691627329   0.214771521
O        0.531875175   0.691627329   0.214771521
K_POINTS automatic 
  20 20 1   0 0 0 

