 &CONTROL
                 calculation = 'bands' ,
                      outdir = './tmp/' ,
                  pseudo_dir = '/home/deleted/pseudo_psl' ,
                      prefix = 'GBr_op' ,
                   verbosity = 'high' ,
               etot_conv_thr = 1.0D-5 ,
               forc_conv_thr = 4.0D-4 ,
                       nstep = 1000 ,
                    dipfield = .true. ,
 /
 &SYSTEM
                       ibrav = 4,
                           A = 9.88 ,
                           C = 15 ,
                         nat = 32,
                        ntyp = 3,
                     ecutwfc = 40.424239707 ,
                     ecutrho = 404.24239707 ,
                 occupations = 'tetrahedra' ,
                     degauss = 0.01 ,
				   input_dft = 'vdW-DF' ,
 /
 &ELECTRONS
            electron_maxstep = 50001,
                    conv_thr = 1.0D-6 ,
                 mixing_mode = 'local-TF' ,
                 mixing_beta = 0.5 ,
 /
ATOMIC_SPECIES
    C   12.01100  C.revpbe-n-kjpaw_psl.0.1.UPF 
   Br   79.90350  Br.revpbe-n-kjpaw_psl.0.2.UPF 
    O   15.99940  O.revpbe-n-kjpaw_psl.0.1.UPF 
ATOMIC_POSITIONS crystal 
C       -0.002467347  -0.001025591   0.003467132
C        0.246791087  -0.006417825   0.002995513
C        0.501441756  -0.001025591   0.003467132
C        0.755489601   0.010979201   0.003384597
C        0.003960223   0.254342021   0.002299855
C        0.081474829   0.165355794   0.002919905
C        0.247086657   0.243013765   0.001318655
C        0.329142592   0.158285185   0.001906644
C        0.495927108   0.243013765   0.001318655
C        0.583880964   0.165355794   0.002919905
C        0.750381798   0.254342021   0.002299855
C        0.837130622   0.174261246   0.002974927
C        0.000925212   0.501850426   0.000710219
C        0.089408846   0.420408921   0.000783183
C        0.259097583   0.500073169  -0.000705172
C        0.331294471   0.406354206  -0.001690846
C        0.575059734   0.406354206  -0.001690846
C        0.740975586   0.500073169  -0.000705172
C        0.831000076   0.420408921   0.000783183
C       -0.009051643   0.747852458   0.001295948
C        0.083348814   0.666697630   0.000721888
C        0.256904102   0.747852458   0.001295948
C        0.351842745   0.667846368   0.000360455
C        0.524874423   0.758634943   0.003044084
Br       0.592606863   0.685213728   0.188691039
C        0.733760520   0.758634943   0.003044084
C        0.816003622   0.667846368   0.000360455
C        0.078518564   0.913300086   0.002908457
C        0.334781522   0.913300086   0.002908457
C        0.589934126   0.920939553   0.003434486
C        0.831005427   0.920939553   0.003434486
O        0.490802846   0.481605693  -0.006923779
K_POINTS crystal_b 
4
0.0000000000    0.0000000000    0.0000000000 17
0.0000000000    0.5000000000    0.0000000000 10
0.3333333333    0.3333333333    0.0000000000 20
0.0000000000    0.0000000000    0.0000000000 1

