 &CONTROL
                 calculation = 'bands' ,
                      outdir = './tmp/' ,
                  pseudo_dir = '/home/deleted/pseudo_psl' ,
                      prefix = 'GF_ip' ,
                   verbosity = 'high' ,
               etot_conv_thr = 1.0D-5 ,
               forc_conv_thr = 4.0D-4 ,
                       nstep = 1000 ,
                    dipfield = .true. ,
 /
 &SYSTEM
                       ibrav = 4,
                           A = 9.88 ,
                           C = 15 ,
                         nat = 34,
                        ntyp = 4,
                     ecutwfc = 40.424239707 ,
                     ecutrho = 404.24239707 ,
                 occupations = 'tetrahedra' ,
                     degauss = 0.01 ,
				   input_dft = 'vdW-DF' ,
 /
 &ELECTRONS
            electron_maxstep = 50001,
                    conv_thr = 1.0D-6 ,
                 mixing_mode = 'local-TF' ,
                 mixing_beta = 0.5 ,
 /
ATOMIC_SPECIES
    C   12.01100  C.revpbe-n-kjpaw_psl.0.1.UPF 
    F   18.99800  F.revpbe-n-kjpaw_psl.0.1.UPF 
    O   15.99940  O.revpbe-n-kjpaw_psl.0.1.UPF 
    H   1.008000  H.revpbe-kjpaw_psl.0.1.UPF
ATOMIC_POSITIONS crystal 
C       -0.006046658  -0.004081295   0.007185256
C        0.242447253  -0.005791656   0.010319754
C        0.492473888  -0.004009430   0.011790587
C        0.743202616  -0.003332128   0.009544704
C       -0.005689219   0.246464057   0.011817708
C        0.075716012   0.161592357   0.013640317
C        0.241538955   0.242260894   0.015284172
C        0.324751877   0.158888953   0.011016258
C        0.491379750   0.242470205   0.006537398
C        0.576562121   0.161693529   0.004891195
C        0.742941801   0.246380626   0.007055593
C        0.826686916   0.162652645   0.009027435
C       -0.006663606   0.495465164   0.010657971
C        0.078667399   0.412704873   0.016914456
C        0.247908269   0.495616507   0.027658477
C        0.323675765   0.405573433   0.021170371
C        0.572859260   0.406083492   0.005789312
C        0.738264604   0.495157871  -0.003226403
C        0.825075409   0.412577328   0.004150187
C       -0.006679575   0.745465338   0.004174507
C        0.076909320   0.661904217   0.010988463
C        0.244199714   0.745520709   0.017901985
C        0.329472478   0.664941019   0.035099094
C        0.490061680   0.760734325   0.057673760
F        0.626573119   0.697678396  -0.079361536
C        0.761612033   0.758384665  -0.030289988
C        0.826791457   0.664141127  -0.010525081
C        0.076063955   0.911511388   0.006948054
C        0.326102856   0.911620320   0.013581410
C        0.576646850   0.915909447   0.024390143
C        0.828943146   0.915698714  -0.004211049
O        0.571236385   0.721281969   0.115731537
O        0.487031880   0.481457199   0.020999346
H        0.528038013   0.608463806   0.117899598
K_POINTS crystal_b 
4
0.0000000000    0.0000000000    0.0000000000 17
0.0000000000    0.5000000000    0.0000000000 10
0.3333333333    0.3333333333    0.0000000000 20
0.0000000000    0.0000000000    0.0000000000 1

