 &CONTROL
                 calculation = 'scf' ,
                      outdir = './tmp/' ,
                  pseudo_dir = '/home/deleted/pseudo_psl' ,
                      prefix = 'MVG_to' ,
                    dipfield = .true. ,
                   verbosity = 'high',
                       nstep = 1000,
               forc_conv_thr = 4.0D-4,
               etot_conv_thr = 1.0D-5
 /
 &SYSTEM
                       ibrav = 4,
                           A = 9.88 ,
                           C = 15 ,
                         nat = 33,
                        ntyp = 2,
                     ecutwfc = 40.424239707 ,
                     ecutrho = 404.24239707 ,
                 occupations = 'smearing' ,
                     degauss = 0.01 ,
				   input_dft = 'vdW-DF' ,
    nspin = 2 ,
    starting_magnetization(1) = 0.5,
	starting_magnetization(2) = 0.5,
 /
 &ELECTRONS
            electron_maxstep = 50001,
                    conv_thr = 1.0D-6 ,
                 mixing_mode = 'local-TF' ,
                 mixing_beta = 0.5 ,
 /
ATOMIC_SPECIES
    C   12.01100  C.revpbe-n-kjpaw_psl.0.1.UPF 
    O   15.99940  O.revpbe-n-kjpaw_psl.0.1.UPF 
ATOMIC_POSITIONS crystal 
C        0.001481075   0.001450450  -0.009244697
C        0.248472664  -0.003054671  -0.007742830
C        0.499969376   0.001450450  -0.009244697
C        0.752080305   0.004160608  -0.012735169
C        0.002685318   0.252210726  -0.004873899
C        0.085205040   0.168224474  -0.006465811
C        0.253180077   0.249729061  -0.005018309
C        0.330489294   0.160978588  -0.005990305
C        0.496548984   0.249729061  -0.005018309
C        0.583019434   0.168224474  -0.006465811
C        0.749525409   0.252210726  -0.004873899
C        0.835116624   0.170233249  -0.007094561
C        0.000238852   0.500477703  -0.003789885
C        0.088237864   0.418035328  -0.003247797
C        0.260672751   0.500759907  -0.003663466
C        0.341005996   0.412276997  -0.000489742
C        0.571271000   0.412276997  -0.000489742
C        0.740087156   0.500759907  -0.003663466
C        0.829797463   0.418035328  -0.003247797
C       -0.002536177   0.748202349  -0.007666483
C        0.082922845   0.665845691  -0.005011852
C        0.250738526   0.748202349  -0.007666483
C        0.336031276   0.667198466  -0.010423568
C        0.502508002   0.753442084  -0.019341166
C        0.591193772   0.682387545  -0.033243906
C        0.750934082   0.753442084  -0.019341166
C        0.831167191   0.667198466  -0.010423568
C        0.081673717   0.915101947  -0.008746142
C        0.333428229   0.915101947  -0.008746142
C        0.585540041   0.920884169  -0.013693732
C        0.835344127   0.920884169  -0.013693732
O        0.662433730   0.824867461   0.189398077
O        0.656202623   0.812405247   0.271960059
K_POINTS automatic 
  16 16 1   0 0 0 

