 &CONTROL
                 calculation = 'bands' ,
                      outdir = './tmp/' ,
                  pseudo_dir = '/home/deleted/pseudo_psl' ,
                      prefix = 'GF_op' ,
                    dipfield = .true. ,
                   verbosity = 'high',
                       nstep = 1000,
               forc_conv_thr = 4.0D-4,
               etot_conv_thr = 1.0D-5
 /
 &SYSTEM
                       ibrav = 4,
                           A = 9.88 ,
                           C = 15 ,
                         nat = 32,
                        ntyp = 2,
                     ecutwfc = 40.424239707 ,
                     ecutrho = 404.24239707 ,
                 occupations = 'tetrahedra' ,
                     degauss = 0.01 ,
				   input_dft = 'vdW-DF' ,
 /
 &ELECTRONS
            electron_maxstep = 50001,
                    conv_thr = 1.0D-6 ,
                 mixing_mode = 'local-TF' ,
                 mixing_beta = 0.5 ,
 /
ATOMIC_SPECIES
    C   12.01100  C.revpbe-n-kjpaw_psl.0.1.UPF 
    F   18.99800  F.revpbe-n-kjpaw_psl.0.1.UPF 
ATOMIC_POSITIONS crystal 
C        0.000179329  -0.000179329  -0.000883988
C        0.250223039   0.000446078   0.001936612
C        0.499641341  -0.000179329  -0.000883988
C        0.749921409  -0.000157182  -0.002490632
C        0.000157182   0.250078591  -0.002490632
C        0.083421108   0.167168419  -0.001612561
C        0.252078868   0.251464276   0.000609046
C        0.332768941   0.165537884   0.001973420
C        0.499385408   0.251464276   0.000609046
C        0.583747310   0.167168419  -0.001612561
C        0.749921409   0.250078591  -0.002490632
C        0.833333333   0.166666667  -0.002749914
C        0.000179329   0.500358659  -0.000883988
C        0.083421108   0.416252690  -0.001612561
C        0.252078868   0.500614592   0.000609046
C        0.327733890   0.413866946  -0.000682598
F        0.500000000   0.500000000   0.105099472
C        0.586133054   0.413866946  -0.000682598
C        0.748535724   0.500614592   0.000609046
C        0.832831581   0.416252690  -0.001612561
C       -0.000446078   0.749776961   0.001936612
C        0.083144581   0.666289164   0.001371031
C        0.250223039   0.749776961   0.001936612
C        0.332768941   0.667231059   0.001973420
C        0.499385408   0.747921132   0.000609046
C        0.586133054   0.672266110  -0.000682598
C        0.748535724   0.747921132   0.000609046
C        0.834462116   0.667231059   0.001973420
C        0.083144581   0.916855419   0.001371031
C        0.333710836   0.916855419   0.001371031
C        0.583747310   0.916578892  -0.001612561
C        0.832831581   0.916578892  -0.001612561
K_POINTS crystal_b 
4
0.0000000000    0.0000000000    0.0000000000 17
0.0000000000    0.5000000000    0.0000000000 10
0.3333333333    0.3333333333    0.0000000000 20
0.0000000000    0.0000000000    0.0000000000 1


