 &CONTROL
                 calculation = 'scf' ,
                      outdir = './tmp/' ,
                  pseudo_dir = '/home/deleted/pseudo_psl' ,
                      prefix = 'GI_ip' ,
                   verbosity = 'high' ,
               etot_conv_thr = 1.0D-5 ,
               forc_conv_thr = 4.0D-4 ,
                       nstep = 1000 ,
                    dipfield = .true. ,
 /
 &SYSTEM
                       ibrav = 4,
                           A = 9.88 ,
                           C = 15 ,
                         nat = 33,
                        ntyp = 3,
                     ecutwfc = 40.424239707 ,
                     ecutrho = 404.24239707 ,
                 occupations = 'smearing' ,
                     degauss = 0.01 ,
				   input_dft = 'vdW-DF' ,
 /
 &ELECTRONS
            electron_maxstep = 50001,
                    conv_thr = 1.0D-6 ,
                 mixing_mode = 'local-TF' ,
                 mixing_beta = 0.5 ,
 /
ATOMIC_SPECIES
    C   12.01100  C.revpbe-n-kjpaw_psl.0.1.UPF 
    I  126.90400  I.revpbe-n-kjpaw_psl.0.2.UPF 
    O   15.99940  O.revpbe-n-kjpaw_psl.0.1.UPF 
ATOMIC_POSITIONS crystal 
C       -0.010628200   0.002158610   0.004608007
C        0.242256710   0.009343586   0.009079767
C        0.487850061   0.002549820   0.006510486
C        0.736191525  -0.003022494  -0.004219726
C       -0.014583645   0.248912495   0.013789223
C        0.071126067   0.169106794   0.006423585
C        0.238155072   0.255896537  -0.004273910
C        0.325038643   0.174666305  -0.004534131
C        0.492948828   0.255996805  -0.007775904
C        0.573039403   0.169507119   0.004646075
C        0.738649872   0.249088766   0.011626156
C        0.818727282   0.162304870   0.009364092
C       -0.012033617   0.501691665   0.027558894
C        0.065988605   0.415482716   0.022250237
C        0.228476424   0.500567555   0.008603174
C        0.303876830   0.419199336  -0.011301840
C        0.591393943   0.418648379  -0.020737101
C        0.748240030   0.500705965  -0.000609588
C        0.824475590   0.415893384   0.017713338
C       -0.005556599   0.755781495   0.017604159
C        0.072116094   0.669975820   0.027491100
C        0.236333865   0.756167018   0.022199578
C        0.313732655   0.671051535   0.008655534
C        0.470564680   0.752422484  -0.011061890
I        0.528469988   0.585876246  -0.061087949
C        0.758585188   0.753037671  -0.020725527
C        0.833362509   0.670962688  -0.000611510
C        0.075401583   0.922568786   0.011428313
C        0.322315456   0.922744422   0.013675000
C        0.568101068   0.915738668  -0.003979789
C        0.822755903   0.915644906  -0.007634795
O        0.550800961   0.584892258   0.139607808
O        0.670493887   0.587771126   0.175719133
K_POINTS automatic 
  16 16 1   0 0 0 

