 &CONTROL
                 calculation = 'nscf' ,
                      outdir = './tmp/' ,
                  pseudo_dir = '/home/deleted/pseudo_psl' ,
                      prefix = 'GBr_ip' ,
                   verbosity = 'high' ,
               etot_conv_thr = 1.0D-5 ,
               forc_conv_thr = 4.0D-4 ,
                       nstep = 1000 ,
                    dipfield = .true. ,
 /
 &SYSTEM
                       ibrav = 4,
                           A = 9.88 ,
                           C = 15 ,
                         nat = 34,
                        ntyp = 4,
                     ecutwfc = 40.424239707 ,
                     ecutrho = 404.24239707 ,
                 occupations = 'tetrahedra' ,
                     degauss = 0.01 ,
				   input_dft = 'vdW-DF' ,
    nspin = 2 ,
    starting_magnetization(1) = 0.5,
    starting_magnetization(2) = 0.5,
    starting_magnetization(3) = 0.5,
 /
 &ELECTRONS
            electron_maxstep = 50001,
                    conv_thr = 1.0D-6 ,
                 mixing_mode = 'local-TF' ,
                 mixing_beta = 0.5 ,
 /
ATOMIC_SPECIES
    C   12.01100  C.revpbe-n-kjpaw_psl.0.1.UPF 
   Br   79.90350  Br.revpbe-n-kjpaw_psl.0.2.UPF 
    O   15.99940  O.revpbe-n-kjpaw_psl.0.1.UPF 
    H   1.008000  H.revpbe-kjpaw_psl.0.1.UPF
ATOMIC_POSITIONS (crystal)
C        0.005159911  -0.001721678   0.002478516
C        0.257683557   0.005049521   0.005518096
C        0.503459491  -0.001830590   0.002063392
C        0.751582223  -0.007174656  -0.004113848
C        0.001331787   0.245245820   0.007069984
C        0.087170524   0.165507686   0.001964497
C        0.254931447   0.252688907  -0.005959556
C        0.340569194   0.170826099  -0.004140415
C        0.508088203   0.252620772  -0.005220338
C        0.588693083   0.165400697   0.002395699
C        0.754255697   0.245184434   0.007756956
C        0.834495082   0.158615478   0.005373980
C        0.004121556   0.497756210   0.018043503
C        0.081942709   0.411900579   0.011731475
C        0.244693249   0.496828113  -0.000347178
C        0.321479760   0.415906976  -0.014527270
C        0.604662536   0.415989115  -0.012211421
C        0.762179595   0.496803924   0.002548086
C        0.840278250   0.411784170   0.013259133
C        0.010256002   0.751809739   0.013460470
C        0.088138608   0.665829696   0.018102958
C        0.251836290   0.751687041   0.011940781
C        0.329639186   0.666685457  -0.000120239
C        0.487417868   0.747610501  -0.014128114
Br       0.546363616   0.581718891  -0.038998217
C        0.770334448   0.747550714  -0.011655540
C        0.847120411   0.666729922   0.002816230
C        0.090862078   0.918452950   0.007942946
C        0.337892615   0.918396899   0.007285516
C        0.584047312   0.910940947  -0.005817146
C        0.837313281   0.911042014  -0.005084366
O        0.541940825   0.566505600   0.163127600
O        0.409435215   0.564527258   0.199752011
H        0.454039542   0.642633635   0.247601389
K_POINTS automatic 
  20 20 1   0 0 0 

