 &CONTROL
                 calculation = 'bands' ,
                      outdir = './tmp/' ,
                  pseudo_dir = '/home/deleted/pseudo_psl' ,
                      prefix = 'MVG_tlh' ,
                    dipfield = .true. ,
                   verbosity = 'high',
                       nstep = 1000,
               forc_conv_thr = 4.0D-4,
               etot_conv_thr = 1.0D-5
 /
 &SYSTEM
                       ibrav = 4,
                           A = 9.88 ,
                           C = 15 ,
                         nat = 32,
                        ntyp = 2,
                     ecutwfc = 40.424239707 ,
                     ecutrho = 404.24239707 ,
                 occupations = 'tetrahedra' ,
                     degauss = 0.01 ,
				   input_dft = 'vdW-DF' ,
    nspin = 2 ,
    starting_magnetization(1) = 0.5,
	starting_magnetization(2) = 0.5,
 /
 &ELECTRONS
            electron_maxstep = 50001,
                    conv_thr = 1.0D-6 ,
                 mixing_mode = 'local-TF' ,
                 mixing_beta = 0.5 ,
 /
 &IONS
                ion_dynamics = 'bfgs' ,
 /
ATOMIC_SPECIES
    C   12.01100  C.revpbe-n-kjpaw_psl.0.1.UPF 
    O   15.99940  O.revpbe-n-kjpaw_psl.0.1.UPF 
ATOMIC_POSITIONS crystal 
C       -0.002325856   0.002325856   0.001674339
C        0.247508029   0.002806357   0.004370610
C        0.496825678   0.002339246   0.001129957
C        0.747446073   0.002722481  -0.000478674
C       -0.002722481   0.252553927  -0.000478674
C        0.080468510   0.169413274   0.000842395
C        0.248071795   0.252664082   0.003774456
C        0.330031880   0.167866758   0.005335249
C        0.496778720   0.252692368   0.003709825
C        0.581114522   0.169429691   0.000625661
C        0.747446228   0.252553772  -0.000497639
C        0.830726037   0.169273963  -0.001052929
C       -0.002339246   0.503174322   0.001129957
C        0.080462317   0.418888320   0.000412120
C        0.248080739   0.503186446   0.003252804
C        0.323138217   0.415454904   0.004411288
C        0.584516694   0.415483306   0.004603390
C        0.747307632   0.503221280   0.003709825
C        0.830570309   0.418885478   0.000625661
C       -0.002806357   0.752491971   0.004370610
C        0.080681058   0.669133999   0.003365600
C        0.247537809   0.752462191   0.003853525
C        0.330062804   0.669937196   0.004630842
C        0.496813554   0.751919261   0.003252804
C        0.584545096   0.676861783   0.004411288
C        0.747335918   0.751928205   0.003774456
C        0.832133242   0.669968120   0.005335249
C        0.080661177   0.919338823   0.003865412
C        0.330866001   0.919318942   0.003365600
C        0.581111680   0.919537683   0.000412120
C        0.830586726   0.919531490   0.000842395
O        0.497365493   0.502634506   0.021420477
K_POINTS crystal_b 
4
0.0000000000    0.0000000000    0.0000000000 17
0.0000000000    0.5000000000    0.0000000000 10
0.3333333333    0.3333333333    0.0000000000 20
0.0000000000    0.0000000000    0.0000000000 1

