 &CONTROL
                 calculation = 'nscf' ,
                      outdir = './tmp/' ,
                  pseudo_dir = '/home/deleted/pseudo_psl' ,
                      prefix = 'GF_op' ,
                   verbosity = 'high' ,
               etot_conv_thr = 1.0D-5 ,
               forc_conv_thr = 4.0D-4 ,
                       nstep = 1000 ,
                    dipfield = .true. ,
 /
 &SYSTEM
                       ibrav = 4,
                           A = 9.88 ,
                           C = 15 ,
                         nat = 33,
                        ntyp = 3,
                     ecutwfc = 40.424239707 ,
                     ecutrho = 404.24239707 ,
                 occupations = 'tetrahedra' ,
                     degauss = 0.01 ,
				   input_dft = 'vdW-DF' ,
    nspin = 2 ,
    starting_magnetization(1) = 0.5,
    starting_magnetization(2) = 0.5,
    starting_magnetization(3) = 0.5,
 /
 &ELECTRONS
            electron_maxstep = 50001,
                    conv_thr = 1.0D-6 ,
                 mixing_mode = 'local-TF' ,
                 mixing_beta = 0.5 ,
 /
ATOMIC_SPECIES
    C   12.01100  C.revpbe-n-kjpaw_psl.0.1.UPF 
    F   18.99800  F.revpbe-n-kjpaw_psl.0.1.UPF 
    O   15.99940  O.revpbe-n-kjpaw_psl.0.1.UPF 
ATOMIC_POSITIONS (crystal)
C        0.007076980   0.010731658   0.000052804
C        0.251338411   0.002676820   0.002293426
C        0.503654678   0.010731658   0.000052804
C        0.758228478   0.016456958  -0.006252247
C        0.008666119   0.261627349  -0.002321336
C        0.090396181   0.177021739  -0.000265269
C        0.257424797   0.255802310   0.000368325
C        0.332686154   0.165372311   0.001703619
C        0.498377514   0.255802310   0.000368325
C        0.586625556   0.177021739  -0.000265269
C        0.752961230   0.261627349  -0.002321336
C        0.840245940   0.180491881  -0.004127004
C        0.004253075   0.508506149  -0.001428203
C        0.095369815   0.426792342  -0.001906923
C        0.269893270   0.506349268  -0.001864210
C        0.352384285   0.417616145  -0.001532972
C        0.565231858   0.417616145  -0.001532972
C        0.736455999   0.506349268  -0.001864210
C        0.831422526   0.426792342  -0.001906923
C        0.000539945   0.755710989   0.000682627
C        0.086550310   0.673100622   0.000550748
C        0.255171044   0.755710989   0.000682627
C        0.343449420   0.674210458  -0.002147473
C        0.503669001   0.772036244  -0.002430592
F        0.598010624   0.696021250  -0.043274285
C        0.768367243   0.772036244  -0.002430592
C        0.830761037   0.674210458  -0.002147473
C        0.084509680   0.921546007   0.001668728
C        0.337036325   0.921546007   0.001668728
C        0.591452727   0.932845341  -0.004754203
C        0.841392614   0.932845341  -0.004754203
O        0.624098098   0.748196195   0.134879472
O        0.558965725   0.617931449   0.177888794
K_POINTS automatic 
  20 20 1   0 0 0 

