 &CONTROL
                 calculation = 'scf' ,
                      outdir = './tmp_subs/' ,
                  pseudo_dir = '/home/deleted/pseudo_psl' ,
                      prefix = 'GCl_op-subs' ,
                   verbosity = 'high' ,
               etot_conv_thr = 1.0D-5 ,
               forc_conv_thr = 4.0D-4 ,
                       nstep = 1000 ,
                    dipfield = .true. ,
 /
 &SYSTEM
                       ibrav = 4,
                           A = 9.88 ,
                           C = 15 ,
                         nat = 31,
                        ntyp = 2,
                     ecutwfc = 40.424239707 ,
                     ecutrho = 404.24239707 ,
                 occupations = 'smearing' ,
                     degauss = 0.01 ,
				   input_dft = 'vdW-DF' ,
    nspin = 2 ,
    starting_magnetization(1) = 0.5,
    starting_magnetization(2) = 0.5,
 /
 &ELECTRONS
            electron_maxstep = 50001,
                    conv_thr = 1.0D-6 ,
                 mixing_mode = 'local-TF' ,
                 mixing_beta = 0.5 ,
 /
ATOMIC_SPECIES
    C   12.01100  C.revpbe-n-kjpaw_psl.0.1.UPF 
   Cl   35.45200  Cl.revpbe-n-kjpaw_psl.0.3.0.UPF 
ATOMIC_POSITIONS (crystal)
C        0.005174269   0.007606211  -0.004741985
C        0.250387554   0.000775109  -0.013673407
C        0.502431943   0.007606211  -0.004741985
C        0.756312291   0.012624583   0.014533287
C        0.006248514   0.257993577  -0.003225559
C        0.088535975   0.173979655  -0.008289459
C        0.255762884   0.253645147  -0.013078185
C        0.332021241   0.164042481  -0.015672214
C        0.497882264   0.253645147  -0.013078185
C        0.585443678   0.173979655  -0.008289459
C        0.751745063   0.257993577  -0.003225559
C        0.838247217   0.176494434   0.002539939
C        0.002581434   0.505162869  -0.004142433
C        0.092423334   0.423490858  -0.003776772
C        0.266186448   0.504099163  -0.002038383
C        0.348734818   0.415876276  -0.008378235
C        0.567141457   0.415876276  -0.008378235
C        0.737912714   0.504099163  -0.002038383
C        0.831067524   0.423490858  -0.003776772
C        0.000163351   0.753029052  -0.006795621
C        0.085102143   0.670204288  -0.008558718
C        0.252865701   0.753029052  -0.006795621
C        0.339280885   0.671833194   0.005068055
C        0.497570007   0.768308549   0.024724344
Cl       0.594653008   0.689306018   0.088156116
C        0.770738542   0.768308549   0.024724344
C        0.832552308   0.671833194   0.005068055
C        0.083574595   0.919336684  -0.009293377
C        0.335762088   0.919336684  -0.009293377
C        0.588284338   0.929758090   0.013273921
C        0.841473751   0.929758090   0.013273921
K_POINTS automatic 
  16 16 1   0 0 0 

