 &CONTROL
                 calculation = 'bands' ,
                      outdir = './tmp/' ,
                  pseudo_dir = '/home/deleted/pseudo_psl' ,
                      prefix = 'GBr_op' ,
                   verbosity = 'high' ,
               etot_conv_thr = 1.0D-5 ,
               forc_conv_thr = 4.0D-4 ,
                       nstep = 1000 ,
                    dipfield = .true. ,
 /
 &SYSTEM
                       ibrav = 4,
                           A = 9.88 ,
                           C = 15 ,
                         nat = 34,
                        ntyp = 4,
                     ecutwfc = 40.424239707 ,
                     ecutrho = 404.24239707 ,
                 occupations = 'tetrahedra' ,
                     degauss = 0.01 ,
				   input_dft = 'vdW-DF' ,
 /
 &ELECTRONS
            electron_maxstep = 50001,
                    conv_thr = 1.0D-6 ,
                 mixing_mode = 'local-TF' ,
                 mixing_beta = 0.5 ,
 /
ATOMIC_SPECIES
    C   12.01100  C.revpbe-n-kjpaw_psl.0.1.UPF 
   Br   79.90350  Br.revpbe-n-kjpaw_psl.0.2.UPF 
    O   15.99940  O.revpbe-n-kjpaw_psl.0.1.UPF 
    H   1.008000  H.revpbe-kjpaw_psl.0.1.UPF
ATOMIC_POSITIONS crystal 
C       -0.027975558  -0.018241908  -0.006669838
C        0.218231101  -0.028433819  -0.005552431
C        0.474766914  -0.018206761  -0.005117251
C        0.731108121  -0.002822413  -0.006160909
C       -0.018936875   0.238377791  -0.005670430
C        0.058363086   0.149029154  -0.006031693
C        0.225324190   0.225759765  -0.005600837
C        0.299296774   0.133623429  -0.005245731
C        0.465385658   0.225810660  -0.004857247
C        0.555652158   0.149129027  -0.004901671
C        0.722252345   0.238463414  -0.005057693
C        0.812057422   0.159221842  -0.005544030
C       -0.025622144   0.483958053  -0.005469616
C        0.069495090   0.403113684  -0.005528766
C        0.246544597   0.480755564  -0.005684976
C        0.325135908   0.387723200  -0.005554121
C        0.527568066   0.387784504  -0.005152605
C        0.699088588   0.480929088  -0.005451005
C        0.798459043   0.403197714  -0.005191920
C       -0.039330040   0.727561089  -0.006108921
C        0.055743839   0.646723466  -0.005742415
C        0.231690132   0.727511611  -0.005696477
C        0.330782127   0.649614906  -0.005855555
C        0.502704303   0.742924622  -0.005489325
Br       0.843143477   0.897817236   0.246408432
C        0.705825583   0.743187547  -0.006977074
C        0.783731382   0.649782182  -0.006284697
C        0.049158716   0.892339166  -0.006240292
C        0.308089045   0.892342801  -0.005366039
C        0.565094520   0.905174683  -0.005549760
C        0.805095624   0.905140288  -0.007003927
O        0.681077200   0.681125354   0.217893488
O        0.531415750   0.666768993   0.206075374
H        0.530986465   0.687624756   0.141601720
K_POINTS automatic  
4
0.0000000000    0.0000000000    0.0000000000 17
0.0000000000    0.5000000000    0.0000000000 10
0.3333333333    0.3333333333    0.0000000000 20
0.0000000000    0.0000000000    0.0000000000 1

