 &CONTROL
                 calculation = 'relax' ,
                      outdir = './tmp/' ,
                  pseudo_dir = '/home/deleted/pseudo_psl' ,
                      prefix = 'GCl_ip' ,
                   verbosity = 'high' ,
               etot_conv_thr = 1.0D-5 ,
               forc_conv_thr = 4.0D-4 ,
                       nstep = 1000 ,
                    dipfield = .true. ,
 /
 &SYSTEM
                       ibrav = 4,
                           A = 9.88 ,
                           C = 15 ,
                         nat = 34,
                        ntyp = 4,
                     ecutwfc = 40.424239707 ,
                     ecutrho = 404.24239707 ,
                 occupations = 'smearing' ,
                     degauss = 0.01 ,
				   input_dft = 'vdW-DF' ,
 /
 &ELECTRONS
            electron_maxstep = 50001,
                    conv_thr = 1.0D-6 ,
                 mixing_mode = 'local-TF' ,
                 mixing_beta = 0.5 ,
 /
 &IONS
                ion_dynamics = 'bfgs' ,
 /
ATOMIC_SPECIES
    C   12.01100  C.revpbe-n-kjpaw_psl.0.1.UPF 
   Cl   35.45200  Cl.revpbe-n-kjpaw_psl.0.3.0.UPF 
    O   15.99940  O.revpbe-n-kjpaw_psl.0.1.UPF 
    H   1.008000  H.revpbe-kjpaw_psl.0.1.UPF
ATOMIC_POSITIONS crystal 
C        0.006729897   0.011327154   0.001939173
C        0.257421627   0.014843253   0.012123549
C        0.504597256   0.011327154   0.001939173
C        0.754819857   0.009639714  -0.013548295
C        0.004037531   0.259255433  -0.003143411
C        0.088808636   0.177492656   0.008526383
C        0.250041757   0.258498768   0.031867418
C        0.340567175   0.181134352   0.029333206
C        0.508457011   0.258498768   0.031867418
C        0.588684019   0.177492656   0.008526383
C        0.755217901   0.259255433  -0.003143411
C        0.837945619   0.175891238  -0.008726384
C        0.005496101   0.510992202  -0.010886355
C        0.086926344   0.426338587  -0.006636628
C        0.249447622   0.509728914   0.007003698
C        0.304244845   0.421806628   0.062154510
C        0.617561782   0.421806628   0.062154510
C        0.760281292   0.509728914   0.007003698
C        0.839412242   0.426338587  -0.006636628
C        0.008949295   0.762626212   0.001383105
C        0.088643628   0.677287258  -0.001675467
C        0.253676918   0.762626212   0.001383105
C        0.333442831   0.676139300   0.000532626
C        0.494073646   0.765575966  -0.010884606
Cl       0.577022409   0.654044819  -0.052527824
C        0.771502319   0.765575966  -0.010884606
C        0.842696467   0.676139300   0.000532626
C        0.090791264   0.929471859   0.005457284
C        0.338680595   0.929471859   0.005457284
C        0.587569849   0.927990725  -0.010225322
C        0.840420875   0.927990725  -0.010225322
O        0.611350051   0.475531103   0.134979555
O        0.364181049   0.475531103   0.134979555
H        0.48776555    0.403104823   0.066027152
K_POINTS automatic 
  4 4 1   0 0 0 

