 &CONTROL
                 calculation = 'scf' ,
                      outdir = './tmp/' ,
                  pseudo_dir = '/home/deleted/pseudo_psl' ,
                      prefix = 'GCl_ip' ,
                   verbosity = 'high' ,
               etot_conv_thr = 1.0D-5 ,
               forc_conv_thr = 4.0D-4 ,
                       nstep = 1000 ,
                    dipfield = .true. ,
 /
 &SYSTEM
                       ibrav = 4,
                           A = 9.88 ,
                           C = 15 ,
                         nat = 34,
                        ntyp = 4,
                     ecutwfc = 40.424239707 ,
                     ecutrho = 404.24239707 ,
                 occupations = 'smearing' ,
                     degauss = 0.01 ,
				   input_dft = 'vdW-DF' ,
 /
 &ELECTRONS
            electron_maxstep = 50001,
                    conv_thr = 1.0D-6 ,
                 mixing_mode = 'local-TF' ,
                 mixing_beta = 0.5 ,
 /
ATOMIC_SPECIES
    C   12.01100  C.revpbe-n-kjpaw_psl.0.1.UPF 
   Cl   35.45200  Cl.revpbe-n-kjpaw_psl.0.3.0.UPF 
    O   15.99940  O.revpbe-n-kjpaw_psl.0.1.UPF 
    H   1.008000  H.revpbe-kjpaw_psl.0.1.UPF
ATOMIC_POSITIONS crystal 
C        0.003055194   0.008755583  -0.000064623
C        0.251283593   0.008445127   0.015506883
C        0.500140497   0.007235707   0.009624741
C        0.750761653   0.007700015  -0.015062790
C       -0.000740894   0.255913947   0.004405220
C        0.084772125   0.174132936   0.011840897
C        0.244812036   0.253740144   0.035329064
C        0.333618446   0.174327110   0.029395964
C        0.499657800   0.252025028   0.029672611
C        0.582859825   0.172952030   0.015178888
C        0.751278544   0.257331950   0.003937846
C        0.834131412   0.173148824  -0.003801353
C        0.001118555   0.506035654   0.000459816
C        0.083320810   0.422467236   0.005450588
C        0.246465521   0.505160538   0.019475557
C        0.305548369   0.415707689   0.068923006
C        0.589782471   0.422330951   0.038462210
C        0.757062670   0.509418886   0.017833923
C        0.837113345   0.421072228   0.002954293
C        0.003251175   0.759190897   0.003160909
C        0.083784360   0.673061183   0.007329518
C        0.248556740   0.756803490   0.010082493
C        0.330302096   0.670603963   0.008266217
C        0.489814058   0.763095496  -0.011434526
Cl       0.578483031   0.673752923  -0.075191375
C        0.770607989   0.765162681  -0.027030238
C        0.838753641   0.676472193  -0.007400800
C        0.085595118   0.925179088   0.005986191
C        0.333881725   0.924386242   0.011961879
C        0.583235273   0.925474768  -0.007794561
C        0.838778231   0.928189990  -0.017581292
O        0.698057770   0.490883367   0.112705615
O        0.385942577   0.469100464   0.137367759
H        0.526379504   0.481245941   0.026076622
K_POINTS automatic 
  16 16 1   0 0 0 

