 &CONTROL
                 calculation = 'scf' ,
                      outdir = './tmp/' ,
                  pseudo_dir = '/home/deleted/pseudo_psl' ,
                      prefix = 'GI_op' ,
                   verbosity = 'high' ,
               etot_conv_thr = 1.0D-5 ,
               forc_conv_thr = 4.0D-4 ,
                       nstep = 1000 ,
                    dipfield = .true. ,
 /
 &SYSTEM
                       ibrav = 4,
                           A = 9.88 ,
                           C = 15 ,
                         nat = 33,
                        ntyp = 3,
                     ecutwfc = 40.424239707 ,
                     ecutrho = 404.24239707 ,
                 occupations = 'smearing' ,
                     degauss = 0.01 ,
				   input_dft = 'vdW-DF' ,
    nspin = 2 ,
    starting_magnetization(1) = 0.5,
    starting_magnetization(2) = 0.5,
    starting_magnetization(3) = 0.5,
 /
 &ELECTRONS
            electron_maxstep = 50001,
                    conv_thr = 1.0D-6 ,
                 mixing_mode = 'local-TF' ,
                 mixing_beta = 0.5 ,
 /
ATOMIC_SPECIES
    C   12.01100  C.revpbe-n-kjpaw_psl.0.1.UPF 
    I  126.90400  I.revpbe-n-kjpaw_psl.0.2.UPF 
    O   15.99940  O.revpbe-n-kjpaw_psl.0.1.UPF 
ATOMIC_POSITIONS (crystal)
C       -0.002049479  -0.016084721  -0.002765170
C        0.244244458  -0.026410839  -0.002859102
C        0.500664408  -0.016036445  -0.004439064
C        0.756912314  -0.000769781  -0.004572326
C        0.006855884   0.240502739  -0.002546021
C        0.084263480   0.151136901  -0.002255077
C        0.251218091   0.227824592  -0.001777997
C        0.325316104   0.135830181  -0.002178139
C        0.491341031   0.227782032  -0.002363594
C        0.581588081   0.151088855  -0.003307595
C        0.748319956   0.240470803  -0.003096310
C        0.838073909   0.161472621  -0.003627957
C        0.000361924   0.485965114  -0.002414419
C        0.095350746   0.405296825  -0.002242421
C        0.272808771   0.483180886  -0.002390511
C        0.350973732   0.389952533  -0.001885034
C        0.553662011   0.389886278  -0.002138750
C        0.725003809   0.483078792  -0.002365546
C        0.824643797   0.405265996  -0.002413874
C       -0.013133070   0.729749371  -0.002853051
C        0.082032358   0.649165253  -0.002914226
C        0.257627932   0.729765007  -0.003683451
C        0.357063283   0.652006604  -0.003632093
C        0.528481819   0.745249612  -0.004284089
I        0.559778027   0.828595731   0.240910939
C        0.731352034   0.745242900  -0.003467267
C        0.809506869   0.651982075  -0.002820037
C        0.075293640   0.894536087  -0.002731176
C        0.334015112   0.894564073  -0.003902628
C        0.590989057   0.907394221  -0.005187682
C        0.830975178   0.907279637  -0.003728440
O        0.731542248   1.021437662   0.204328059
O        0.365791722   0.810778235   0.210604601
K_POINTS automatic 
  16 16 1   0 0 0 

