 &CONTROL
                 calculation = 'scf' ,
                      outdir = './tmp_subs/' ,
                  pseudo_dir = '/home/deleted/pseudo_psl' ,
                      prefix = 'GBr_op_subs' ,
                   verbosity = 'high' ,
               etot_conv_thr = 1.0D-5 ,
               forc_conv_thr = 4.0D-4 ,
                       nstep = 1000 ,
                    dipfield = .true. ,
 /
 &SYSTEM
                       ibrav = 4,
                           A = 9.88 ,
                           C = 15 ,
                         nat = 31,
                        ntyp = 2,
                     ecutwfc = 40.424239707 ,
                     ecutrho = 404.24239707 ,
                 occupations = 'smearing' ,
                     degauss = 0.01 ,
				   input_dft = 'vdW-DF' ,
 /
 &ELECTRONS
            electron_maxstep = 50001,
                    conv_thr = 1.0D-6 ,
                 mixing_mode = 'local-TF' ,
                 mixing_beta = 0.5 ,
 /
ATOMIC_SPECIES
    C   12.01100  C.revpbe-n-kjpaw_psl.0.1.UPF 
   Br   79.90350  Br.revpbe-n-kjpaw_psl.0.2.UPF 
ATOMIC_POSITIONS crystal 
C       -0.001710893  -0.000697028  -0.003918884
C        0.244452912  -0.011094175  -0.003750263
C        0.501013865  -0.000697028  -0.003918884
C        0.757308013   0.014616025  -0.004081948
C        0.007321461   0.255958909  -0.003658219
C        0.084635338   0.166524125  -0.003573562
C        0.251581223   0.243193643  -0.003506002
C        0.325585683   0.151171368  -0.003435940
C        0.491612420   0.243193643  -0.003506002
C        0.581888786   0.166524125  -0.003573562
C        0.748637448   0.255958909  -0.003658219
C        0.838443988   0.176887978  -0.003633276
C        0.000645759   0.501291519  -0.004300251
C        0.095792159   0.420715464  -0.004086578
C        0.273270450   0.498475100  -0.004404784
C        0.351463195   0.405271639  -0.003881466
C        0.553808442   0.405271639  -0.003881466
C        0.725204650   0.498475100  -0.004404784
C        0.824923306   0.420715464  -0.004086578
C       -0.012958036   0.745027184  -0.004572040
C        0.082233004   0.664466009  -0.004535699
C        0.257985221   0.745027184  -0.004572040
C        0.357530791   0.667219751  -0.004924322
C        0.528980835   0.760499823  -0.004995545
Br       0.615636110   0.731272221   0.215526288
C        0.731518988   0.760499823  -0.004995545
C        0.809688958   0.667219751  -0.004924322
C        0.075546273   0.909828560  -0.004069200
C        0.334282286   0.909828560  -0.004069200
C        0.591282582   0.922638546  -0.004442556
C        0.831355964   0.922638546  -0.004442556
K_POINTS automatic 
  16 16 1   0 0 0 

