 &CONTROL
                 calculation = 'nscf' ,
                      outdir = './tmp/' ,
                  pseudo_dir = '/home/deleted/pseudo_psl' ,
                      prefix = 'GF_ip' ,
                   verbosity = 'high' ,
               etot_conv_thr = 1.0D-5 ,
               forc_conv_thr = 4.0D-4 ,
                       nstep = 1000 ,
                    dipfield = .true. ,
 /
 &SYSTEM
                       ibrav = 4,
                           A = 9.88 ,
                           C = 15 ,
                         nat = 33,
                        ntyp = 3,
                     ecutwfc = 40.424239707 ,
                     ecutrho = 404.24239707 ,
                 occupations = 'tetrahedra' ,
                     degauss = 0.01 ,
				   input_dft = 'vdW-DF' ,
 /
 &ELECTRONS
            electron_maxstep = 50001,
                    conv_thr = 1.0D-6 ,
                 mixing_mode = 'local-TF' ,
                 mixing_beta = 0.5 ,
 /
ATOMIC_SPECIES
    C   12.01100  C.revpbe-n-kjpaw_psl.0.1.UPF 
    F   18.99800  F.revpbe-n-kjpaw_psl.0.1.UPF 
    O   15.99940  O.revpbe-n-kjpaw_psl.0.1.UPF 
ATOMIC_POSITIONS crystal 
C        0.003097612   0.002167082  -0.001093284
C        0.246690929  -0.006618143  -0.003629808
C        0.499069470   0.002167082  -0.001093284
C        0.754030236   0.008060473   0.006128700
C        0.004234786   0.252926476   0.001187331
C        0.086247569   0.168275456  -0.001436698
C        0.252937370   0.246514921  -0.003256832
C        0.328152900   0.156305800  -0.004190103
C        0.493577552   0.246514921  -0.003256832
C        0.582027885   0.168275456  -0.001436698
C        0.748691689   0.252926476   0.001187331
C        0.836087650   0.172175299   0.003182906
C       -0.000377466   0.499245068   0.000800227
C        0.090989436   0.417959594   0.001025299
C        0.265380682   0.497331070   0.000681310
C        0.349174103   0.408684948  -0.001089331
C        0.559510844   0.408684948  -0.001089331
C        0.731950388   0.497331070   0.000681310
C        0.826970158   0.417959594   0.001025299
C       -0.003769634   0.746566657  -0.001274470
C        0.082021493   0.664042987  -0.001181088
C        0.250336289   0.746566657  -0.001274470
C        0.338536313   0.664717731   0.001771388
C        0.498175798   0.764542600   0.004650475
F        0.591854743   0.683709487   0.028507543
C        0.766366802   0.764542600   0.004650475
C        0.826181417   0.664717731   0.001771388
C        0.080069781   0.912587153  -0.002416748
C        0.332517370   0.912587153  -0.002416748
C        0.587499483   0.924379034   0.004271887
C        0.836879549   0.924379034   0.004271887
O        0.528298483   0.556596965   0.199474446
O        0.459921645   0.419843291   0.164866525
K_POINTS automatic 
  20 20 1   0 0 0 

