 &CONTROL
                 calculation = 'scf' ,
                      outdir = './tmp/' ,
                  pseudo_dir = '/home/deleted/pseudo_psl' ,
                      prefix = 'GBr_op' ,
                   verbosity = 'high' ,
               etot_conv_thr = 1.0D-5 ,
               forc_conv_thr = 4.0D-4 ,
                       nstep = 1000 ,
                    dipfield = .true. ,
 /
 &SYSTEM
                       ibrav = 4,
                           A = 9.88 ,
                           C = 15 ,
                         nat = 34,
                        ntyp = 4,
                     ecutwfc = 40.424239707 ,
                     ecutrho = 404.24239707 ,
                 occupations = 'smearing' ,
                     degauss = 0.01 ,
				   input_dft = 'vdW-DF' ,
    nspin = 2 ,
    starting_magnetization(1) = 0.5,
    starting_magnetization(2) = 0.5,
    starting_magnetization(3) = 0.5,
 /
 &ELECTRONS
            electron_maxstep = 50001,
                    conv_thr = 1.0D-6 ,
                 mixing_mode = 'local-TF' ,
                 mixing_beta = 0.5 ,
 /
ATOMIC_SPECIES
    C   12.01100  C.revpbe-n-kjpaw_psl.0.1.UPF 
   Br   79.90350  Br.revpbe-n-kjpaw_psl.0.2.UPF 
    O   15.99940  O.revpbe-n-kjpaw_psl.0.1.UPF 
    H   1.008000  H.revpbe-kjpaw_psl.0.1.UPF
ATOMIC_POSITIONS (crystal)
C        0.002288379   0.005457225  -0.003783828
C        0.246567565  -0.006008153  -0.005081844
C        0.501534043   0.004970777  -0.002597130
C        0.755858173   0.011623110  -0.001393858
C        0.006195667   0.256806026  -0.015450268
C        0.087652279   0.171596817  -0.012316307
C        0.254609187   0.249405083  -0.014196245
C        0.328259007   0.157601559  -0.011038759
C        0.494003252   0.249227615  -0.013320592
C        0.583038899   0.171285133  -0.011372410
C        0.750354852   0.256676199  -0.014808451
C        0.838399365   0.176799874  -0.012677229
C        0.001414285   0.502607972  -0.014297452
C        0.093900406   0.422144423  -0.016308544
C        0.271065911   0.503640544  -0.012622061
C        0.355530176   0.411141808  -0.015172462
C        0.554903820   0.411278238  -0.014233887
C        0.732371202   0.503157661  -0.012382952
C        0.828101677   0.421779832  -0.015942063
C       -0.005455389   0.747255910  -0.003986488
C        0.083676239   0.667035584  -0.008823019
C        0.252805408   0.747527732  -0.003201987
C        0.340350068   0.667159937  -0.000770135
C        0.509273359   0.760735024   0.028127717
Br       0.436111910   0.583887233   0.201089643
C        0.750675899   0.760370869   0.026091873
C        0.826468162   0.666760426  -0.002046740
C        0.080050810   0.914453748  -0.002301414
C        0.333564872   0.914472974  -0.001683906
C        0.589924570   0.930461142   0.005730042
C        0.839586091   0.930431255   0.004344059
O        0.594095749   0.691337250  -0.007336415
O        0.523267342   0.781411328   0.123958534
H        0.744219218   0.751423619   0.100187393
K_POINTS automatic 
  16 16 1   0 0 0 

