 &CONTROL
                 calculation = 'scf' ,
                      outdir = './tmp/' ,
                  pseudo_dir = '/home/deleted/pseudo_psl' ,
                      prefix = 'GCl_op' ,
                   verbosity = 'high' ,
               etot_conv_thr = 1.0D-5 ,
               forc_conv_thr = 4.0D-4 ,
                       nstep = 1000 ,
                    dipfield = .true. ,
 /
 &SYSTEM
                       ibrav = 4,
                           A = 9.88 ,
                           C = 15 ,
                         nat = 33,
                        ntyp = 3,
                     ecutwfc = 40.424239707 ,
                     ecutrho = 404.24239707 ,
                 occupations = 'smearing' ,
                     degauss = 0.01 ,
				   input_dft = 'vdW-DF' ,
    nspin = 2 ,
    starting_magnetization(1) = 0.5,
    starting_magnetization(2) = 0.5,
    starting_magnetization(3) = 0.5,
 /
 &ELECTRONS
            electron_maxstep = 50001,
                    conv_thr = 1.0D-6 ,
                 mixing_mode = 'local-TF' ,
                 mixing_beta = 0.5 ,
 /
ATOMIC_SPECIES
    C   12.01100  C.revpbe-n-kjpaw_psl.0.1.UPF 
   Cl   35.45200  Cl.revpbe-n-kjpaw_psl.0.3.0.UPF 
    O   15.99940  O.revpbe-n-kjpaw_psl.0.1.UPF 
ATOMIC_POSITIONS (crystal)
C        0.008068639   0.007998612  -0.004134919
C        0.253501815   0.001494262  -0.012509439
C        0.505417246   0.008030908  -0.003388323
C        0.759331752   0.012960185   0.015242896
C        0.009276836   0.258451329  -0.003382615
C        0.091422234   0.174379447  -0.008101373
C        0.258662224   0.254205091  -0.012958325
C        0.335135181   0.164726753  -0.014528013
C        0.501082064   0.254188007  -0.011895556
C        0.588563786   0.174402561  -0.007003511
C        0.754858485   0.258430264  -0.002590316
C        0.841245333   0.176774782   0.003028317
C        0.005768270   0.505724515  -0.004714622
C        0.095414697   0.423980934  -0.004514965
C        0.269034725   0.504660394  -0.002891497
C        0.350920648   0.416423374  -0.009139191
C        0.570963316   0.416442944  -0.008160778
C        0.741354855   0.504629239  -0.002178469
C        0.834370885   0.423973843  -0.003856701
C        0.003275028   0.753612228  -0.006574443
C        0.088263569   0.670788443  -0.008815711
C        0.256030280   0.753677845  -0.006644308
C        0.342434453   0.672432701   0.005064471
C        0.500198762   0.768537967   0.025720424
Cl       0.596975373   0.688673297   0.088957421
C        0.772857234   0.768195652   0.024369154
C        0.835679419   0.672508334   0.004937498
C        0.086638870   0.919927015  -0.008592473
C        0.338855390   0.919980964  -0.008179638
C        0.591186592   0.929963313   0.014362191
C        0.844304320   0.929941134   0.013640529
O        0.302244625   0.401100634   0.212081494
O        0.333329756   0.542116366   0.214017455
K_POINTS automatic 
  16 16 1   0 0 0 

