 &CONTROL
                 calculation = 'relax' ,
                      outdir = './tmp/' ,
                  pseudo_dir = '/home/deleted/pseudo_psl' ,
                      prefix = 'GBr_ip' ,
                   verbosity = 'high' ,
               etot_conv_thr = 1.0D-5 ,
               forc_conv_thr = 4.0D-4 ,
                       nstep = 1000 ,
                    dipfield = .true. ,
 /
 &SYSTEM
                       ibrav = 4,
                           A = 9.88 ,
                           C = 15 ,
                         nat = 33,
                        ntyp = 3,
                     ecutwfc = 40.424239707 ,
                     ecutrho = 404.24239707 ,
                 occupations = 'smearing' ,
                     degauss = 0.01 ,
				   input_dft = 'vdW-DF' ,
 /
 &ELECTRONS
            electron_maxstep = 50001,
                    conv_thr = 1.0D-6 ,
                 mixing_mode = 'local-TF' ,
                 mixing_beta = 0.5 ,
 /
 &IONS
                ion_dynamics = 'bfgs' ,
 /
ATOMIC_SPECIES
    C   12.01100  C.revpbe-n-kjpaw_psl.0.1.UPF 
   Br   79.90350  Br.revpbe-n-kjpaw_psl.0.2.UPF 
    O   15.99940  O.revpbe-n-kjpaw_psl.0.1.UPF 
ATOMIC_POSITIONS crystal 
C        0.001198512   0.018756402  -0.000380363
C        0.249690358   0.018234887   0.009020294
C        0.500143752   0.016333293   0.019646082
C        0.751143556   0.016604744   0.009211887
C        0.002562761   0.267866508   0.007823788
C        0.084583406   0.183552669   0.008928019
C        0.244578401   0.262045018   0.026553000
C        0.332477811   0.184028976   0.010996506
C        0.499797926   0.265355461  -0.004008747
C        0.585873751   0.183538830   0.008916801
C        0.752368706   0.266542178   0.005778868
C        0.836543671   0.183304617   0.006386745
C        0.001053284   0.518599119   0.007261157
C        0.083831505   0.435544716   0.013848264
C        0.239274958   0.511810400   0.041923470
C        0.308193982   0.419435015   0.062031631
C        0.587262555   0.424604745  -0.030417989
C        0.746756971   0.512823619  -0.010830700
C        0.833754627   0.432395641   0.000646143
C        0.000096933   0.767211865   0.004729241
C        0.086735144   0.684989887   0.013501585
C        0.253990440   0.767074355   0.027749767
C        0.337221328   0.683765614   0.045698505
C        0.508952692   0.772586924   0.043652673
Br       0.515477230   0.513844854  -0.131836587
C        0.754511543   0.773533804   0.007768143
C        0.830769226   0.681775434  -0.001040433
C        0.082327175   0.933775545   0.004231959
C        0.334103505   0.934151833   0.018934289
C        0.584863188   0.933498493   0.022788409
C        0.834868466   0.935570160   0.002148202
O        0.603627027   0.691813973   0.041241145
O        0.436954579   0.478839596   0.107098245
K_POINTS automatic 
  4 4 1   0 0 0 

