 &CONTROL
                 calculation = 'scf' ,
                      outdir = './tmp/' ,
                  pseudo_dir = '/home/deleted/pseudo_psl' ,
                      prefix = 'GCl_ip' ,
                   verbosity = 'high' ,
               etot_conv_thr = 1.0D-5 ,
               forc_conv_thr = 4.0D-4 ,
                       nstep = 1000 ,
                    dipfield = .true. ,
 /
 &SYSTEM
                       ibrav = 4,
                           A = 9.88 ,
                           C = 15 ,
                         nat = 34,
                        ntyp = 4,
                     ecutwfc = 40.424239707 ,
                     ecutrho = 404.24239707 ,
                 occupations = 'smearing' ,
                     degauss = 0.01 ,
				   input_dft = 'vdW-DF' ,
    nspin = 2 ,
    starting_magnetization(1) = 0.5,
    starting_magnetization(2) = 0.5,
    starting_magnetization(3) = 0.5,
 /
 &ELECTRONS
            electron_maxstep = 50001,
                    conv_thr = 1.0D-6 ,
                 mixing_mode = 'local-TF' ,
                 mixing_beta = 0.5 ,
 /
ATOMIC_SPECIES
    C   12.01100  C.revpbe-n-kjpaw_psl.0.1.UPF 
   Cl   35.45200  Cl.revpbe-n-kjpaw_psl.0.3.0.UPF 
    O   15.99940  O.revpbe-n-kjpaw_psl.0.1.UPF 
    H   1.008000  H.revpbe-kjpaw_psl.0.1.UPF
ATOMIC_POSITIONS (crystal)
C        0.002249580   0.001491826  -0.002226436
C        0.254866421   0.007727589  -0.001099776
C        0.501231304   0.001465757  -0.001891002
C        0.749197225  -0.003532126  -0.003450384
C       -0.000891041   0.248929570  -0.000976287
C        0.084794906   0.168860715  -0.001552368
C        0.253352820   0.256662641  -0.001773525
C        0.338000259   0.174034294  -0.001866873
C        0.505284655   0.256629273  -0.002100891
C        0.586038132   0.168836729  -0.001680231
C        0.751800414   0.248946155  -0.001167317
C        0.832309239   0.162657721  -0.001744729
C        0.001614385   0.501196896   0.000174698
C        0.079783722   0.415461163   0.000013172
C        0.244149931   0.500569822  -0.000620397
C        0.324276996   0.421243826  -0.001805192
C        0.598946373   0.421196977  -0.002801139
C        0.758421204   0.500566908  -0.001903877
C        0.837702213   0.415481076  -0.000589836
C        0.007413131   0.754935213  -0.000931233
C        0.085625221   0.669201078   0.000219398
C        0.249580804   0.754974646  -0.000064068
C        0.328948059   0.670003428  -0.001123341
C        0.488435578   0.749468518  -0.003589721
Cl       0.544115169   0.586359858  -0.004577647
C        0.763007917   0.749474211  -0.004902644
C        0.843070591   0.670005867  -0.002667133
C        0.088008367   0.921450615  -0.001300219
C        0.335466011   0.921462119  -0.000886506
C        0.582057832   0.913886176  -0.003288021
C        0.833784359   0.913913006  -0.003861810
O        0.703996454   0.922406064   0.206495045
O        0.670241716   0.767714961   0.209097728
H        0.744203601   0.769000532   0.253500528
K_POINTS automatic 
  16 16 1   0 0 0 

