 &CONTROL
                 calculation = 'relax' ,
                      outdir = './tmp/' ,
                  pseudo_dir = '/home/deleted/pseudo_psl' ,
                      prefix = 'GCl_ip' ,
                   verbosity = 'high' ,
               etot_conv_thr = 1.0D-5 ,
               forc_conv_thr = 4.0D-4 ,
                       nstep = 1000 ,
                    dipfield = .true. ,
 /
 &SYSTEM
                       ibrav = 4,
                           A = 9.88 ,
                           C = 15 ,
                         nat = 34,
                        ntyp = 4,
                     ecutwfc = 40.424239707 ,
                     ecutrho = 404.24239707 ,
                 occupations = 'smearing' ,
                     degauss = 0.01 ,
				   input_dft = 'vdW-DF' ,
    nspin = 2 ,
    starting_magnetization(1) = 0.5,
    starting_magnetization(2) = 0.5,
    starting_magnetization(3) = 0.5,
	starting_magnetization(4) = 0.5,
 /
 &ELECTRONS
            electron_maxstep = 50001,
                    conv_thr = 1.0D-6 ,
                 mixing_mode = 'local-TF' ,
                 mixing_beta = 0.5 ,
 /
 &IONS
                ion_dynamics = 'bfgs' ,
 /
ATOMIC_SPECIES
    C   12.01100  C.revpbe-n-kjpaw_psl.0.1.UPF 
   Cl   35.45200  Cl.revpbe-n-kjpaw_psl.0.3.0.UPF 
    O   15.99940  O.revpbe-n-kjpaw_psl.0.1.UPF 
    H   1.008000  H.revpbe-kjpaw_psl.0.1.UPF
ATOMIC_POSITIONS (crystal)
C        0.001617336   0.002105392  -0.000931642
C        0.254096797   0.008193592  -0.000185788
C        0.500488056   0.002105392  -0.000931642
C        0.748531375  -0.002937250  -0.001981182
C       -0.001545947   0.249530025  -0.000414721
C        0.084085137   0.169366543  -0.000578398
C        0.252491011   0.257024215  -0.000598501
C        0.337223713   0.174447427  -0.000478246
C        0.504533204   0.257024215  -0.000598501
C        0.585281404   0.169366543  -0.000578398
C        0.751075972   0.249530025  -0.000414721
C        0.831645513   0.163291025  -0.000867944
C        0.000874911   0.501749822   0.000221852
C        0.079120011   0.416059634  -0.000008140
C        0.243475485   0.501034631  -0.000579793
C        0.323561221   0.421471635  -0.001000659
C        0.597910413   0.421471635  -0.001000659
C        0.757559146   0.501034631  -0.000579793
C        0.836939622   0.416059634  -0.000008140
C        0.006622329   0.755449550  -0.000158027
C        0.084869637   0.669739276   0.000257229
C        0.248827221   0.755449550  -0.000158027
C        0.328240638   0.670520455  -0.001050294
C        0.487892438   0.750109102  -0.002493129
Cl       0.543042789   0.586085580  -0.002666478
C        0.762216663   0.750109102  -0.002493129
C        0.842279817   0.670520455  -0.001050294
C        0.087271750   0.921959946  -0.000345871
C        0.334688196   0.921959946  -0.000345871
C        0.581260994   0.914504242  -0.002048512
C        0.833243246   0.914504242  -0.002048512
O        0.705018632   0.910037262   0.216626072
O        0.632227934   0.764455868   0.209489861
H        0.804416884   0.769349763   0.213057967
K_POINTS automatic 
  4 4 1   0 0 0 

