 &CONTROL
                 calculation = 'nscf' ,
                      outdir = './tmp/' ,
                  pseudo_dir = '/home/deleted/pseudo_psl' ,
                      prefix = 'GI_ip' ,
                   verbosity = 'high' ,
               etot_conv_thr = 1.0D-5 ,
               forc_conv_thr = 4.0D-4 ,
                       nstep = 1000 ,
                    dipfield = .true. ,
 /
 &SYSTEM
                       ibrav = 4,
                           A = 9.88 ,
                           C = 15 ,
                         nat = 33,
                        ntyp = 3,
                     ecutwfc = 40.424239707 ,
                     ecutrho = 404.24239707 ,
                 occupations = 'tetrahedra' ,
                     degauss = 0.01 ,
				   input_dft = 'vdW-DF' ,
    nspin = 2 ,
    starting_magnetization(1) = 0.5,
    starting_magnetization(2) = 0.5,
    starting_magnetization(3) = 0.5,
 /
 &ELECTRONS
            electron_maxstep = 50001,
                    conv_thr = 1.0D-6 ,
                 mixing_mode = 'local-TF' ,
                 mixing_beta = 0.5 ,
 /
ATOMIC_SPECIES
    C   12.01100  C.revpbe-n-kjpaw_psl.0.1.UPF 
    I  126.90400  I.revpbe-n-kjpaw_psl.0.2.UPF 
    O   15.99940  O.revpbe-n-kjpaw_psl.0.1.UPF 
ATOMIC_POSITIONS (crystal)
C        0.004359056   0.002652545  -0.003023310
C        0.257019442   0.009581802  -0.006948087
C        0.502664033   0.002673581  -0.004598328
C        0.751035089  -0.002331062   0.005376995
C        0.000381469   0.249518527  -0.011011253
C        0.086183220   0.169803312  -0.003901474
C        0.253228142   0.256369694   0.006439931
C        0.339575960   0.174780790   0.006165814
C        0.507447516   0.256409935   0.008125255
C        0.587876247   0.169871750  -0.003123762
C        0.753389681   0.249555327  -0.009982585
C        0.833597951   0.162885057  -0.007091171
C        0.003055250   0.502237183  -0.025967140
C        0.080937304   0.416050935  -0.019562610
C        0.243357320   0.500964412  -0.006440527
C        0.319215696   0.420010954   0.013068002
C        0.605179104   0.419848014   0.017462244
C        0.762399665   0.501078659  -0.001333940
C        0.839392269   0.416307177  -0.017089095
C        0.009461952   0.756196000  -0.017132658
C        0.087130050   0.670229706  -0.026047786
C        0.251222178   0.756410684  -0.020225463
C        0.328847596   0.671449823  -0.007391654
C        0.485944759   0.752439296   0.010765252
I        0.543837995   0.587131954   0.063433148
C        0.771716956   0.752851247   0.016769304
C        0.847706497   0.671489046  -0.001482016
C        0.090197055   0.922948713  -0.009892591
C        0.337172005   0.922946771  -0.011557164
C        0.583204848   0.916043430   0.005041685
C        0.837397160   0.916218543   0.007624358
O        0.516932135   0.805839294   0.231774289
O        0.376039029   0.696499514   0.221756337
K_POINTS automatic 
  20 20 1   0 0 0 

