 &CONTROL
                 calculation = 'bands' ,
                      outdir = './tmp/' ,
                  pseudo_dir = '/home/deleted/pseudo_psl' ,
                      prefix = 'GCl_ip' ,
                   verbosity = 'high' ,
               etot_conv_thr = 1.0D-5 ,
               forc_conv_thr = 4.0D-4 ,
                       nstep = 1000 ,
                    dipfield = .true. ,
 /
 &SYSTEM
                       ibrav = 4,
                           A = 9.88 ,
                           C = 15 ,
                         nat = 34,
                        ntyp = 4,
                     ecutwfc = 40.424239707 ,
                     ecutrho = 404.24239707 ,
                 occupations = 'tetrahedra' ,
                     degauss = 0.01 ,
				   input_dft = 'vdW-DF' ,
    nspin = 2 ,
    starting_magnetization(1) = 0.5,
    starting_magnetization(2) = 0.5,
    starting_magnetization(3) = 0.5,
 /
 &ELECTRONS
            electron_maxstep = 50001,
                    conv_thr = 1.0D-6 ,
                 mixing_mode = 'local-TF' ,
                 mixing_beta = 0.5 ,
 /
ATOMIC_SPECIES
    C   12.01100  C.revpbe-n-kjpaw_psl.0.1.UPF 
   Cl   35.45200  Cl.revpbe-n-kjpaw_psl.0.3.0.UPF 
    O   15.99940  O.revpbe-n-kjpaw_psl.0.1.UPF 
    H   1.008000  H.revpbe-kjpaw_psl.0.1.UPF
ATOMIC_POSITIONS (crystal)
C        0.000645114   0.007846312  -0.000251910
C        0.253295245   0.014180669   0.000955786
C        0.499629534   0.007821467  -0.000072351
C        0.747510912   0.002663530  -0.001438368
C       -0.002461330   0.255319342   0.000651832
C        0.083259207   0.175293149   0.000122448
C        0.251896340   0.263195760  -0.000134272
C        0.336464674   0.180513945   0.000279359
C        0.503720474   0.263146244   0.000219932
C        0.584467895   0.175262791   0.000578590
C        0.750217723   0.255346022   0.001044230
C        0.830680989   0.168967114   0.000334298
C        0.000028084   0.507637282   0.001854036
C        0.078182933   0.421874488   0.001175980
C        0.242543435   0.506970010  -0.000218717
C        0.322804529   0.427820814  -0.000926251
C        0.597408835   0.427752250  -0.000606726
C        0.756806020   0.506970559   0.000215324
C        0.836101898   0.421899134   0.001575684
C        0.005761374   0.761353598   0.001047244
C        0.084041754   0.675668423   0.001841446
C        0.248000543   0.761393659   0.000918543
C        0.327295234   0.676336371  -0.001063077
C        0.486685472   0.755513454  -0.003438518
Cl       0.542524410   0.592759161  -0.003893973
C        0.761239196   0.755563728  -0.003328667
C        0.841414782   0.676339744  -0.000795224
C        0.086423273   0.927863130   0.000692626
C        0.333862453   0.927886851   0.000746518
C        0.580351683   0.920021828  -0.001803356
C        0.832074508   0.920066513  -0.001825192
O        0.700518953   0.709641008   0.220286170
O        0.590891327   0.753460299   0.197260784
H        0.737519550   0.757457508   0.279281193
K_POINTS automatic 
  20 20 1   0 0 0 

