 &CONTROL
                 calculation = 'scf' ,
                      outdir = './tmp/' ,
                  pseudo_dir = '/home/deleted/pseudo_psl' ,
                      prefix = 'GBr_ip' ,
                   verbosity = 'high' ,
               etot_conv_thr = 1.0D-5 ,
               forc_conv_thr = 4.0D-4 ,
                       nstep = 1000 ,
                    dipfield = .true. ,
 /
 &SYSTEM
                       ibrav = 4,
                           A = 9.88 ,
                           C = 15 ,
                         nat = 33,
                        ntyp = 3,
                     ecutwfc = 40.424239707 ,
                     ecutrho = 404.24239707 ,
                 occupations = 'smearing' ,
                     degauss = 0.01 ,
				   input_dft = 'vdW-DF' ,
    nspin = 2 ,
    starting_magnetization(1) = 0.5,
    starting_magnetization(2) = 0.5,
    starting_magnetization(3) = 0.5,
 /
 &ELECTRONS
            electron_maxstep = 50001,
                    conv_thr = 1.0D-6 ,
                 mixing_mode = 'local-TF' ,
                 mixing_beta = 0.5 ,
 /
ATOMIC_SPECIES
    C   12.01100  C.revpbe-n-kjpaw_psl.0.1.UPF 
   Br   79.90350  Br.revpbe-n-kjpaw_psl.0.2.UPF 
    O   15.99940  O.revpbe-n-kjpaw_psl.0.1.UPF 
ATOMIC_POSITIONS (crystal)
C       -0.001157893   0.002780283   0.002719732
C        0.251273201   0.009379384   0.005767612
C        0.497120012   0.002682331   0.002041217
C        0.745278742  -0.002530798  -0.004285605
C       -0.005004882   0.249739278   0.007452791
C        0.080730619   0.169899195   0.001990124
C        0.248304854   0.256862599  -0.006563850
C        0.334099405   0.175086932  -0.004288396
C        0.501687392   0.256808397  -0.005061420
C        0.582356306   0.169800959   0.002892146
C        0.747921152   0.249688994   0.008544726
C        0.828181701   0.163190078   0.005879968
C       -0.002133605   0.502248692   0.018969659
C        0.075729477   0.416468598   0.012073524
C        0.238242796   0.501272863  -0.001444981
C        0.314558133   0.419821650  -0.016486916
C        0.598287326   0.420080337  -0.012442539
C        0.755832104   0.501271534   0.003037951
C        0.833957476   0.416323752   0.014338309
C        0.003923043   0.756252073   0.014144718
C        0.081897862   0.670336768   0.018863375
C        0.245522819   0.756089664   0.011983698
C        0.323232579   0.671258864  -0.001434497
C        0.481021131   0.752729392  -0.016412413
Br       0.540308337   0.586276897  -0.040381129
C        0.764460624   0.752475226  -0.012466943
C        0.840826951   0.671279096   0.002967902
C        0.084503286   0.922873921   0.008323065
C        0.331537240   0.922826205   0.007384998
C        0.577716380   0.915718196  -0.006542975
C        0.831160194   0.915768279  -0.005165742
O        0.529302269   0.583848171   0.176942973
O        0.405989633   0.574725525   0.206658919
K_POINTS automatic 
  16 16 1   0 0 0 

