 &CONTROL
                 calculation = 'bands' ,
                      outdir = './tmp/' ,
                  pseudo_dir = '/home/deleted/pseudo_psl' ,
                      prefix = 'GF_ip' ,
                   verbosity = 'high' ,
               etot_conv_thr = 1.0D-5 ,
               forc_conv_thr = 4.0D-4 ,
                       nstep = 1000 ,
                    dipfield = .true. ,
 /
 &SYSTEM
                       ibrav = 4,
                           A = 9.88 ,
                           C = 15 ,
                         nat = 32,
                        ntyp = 3,
                     ecutwfc = 40.424239707 ,
                     ecutrho = 404.24239707 ,
                 occupations = 'tetrahedra' ,
                     degauss = 0.01 ,
				   input_dft = 'vdW-DF' ,
 /
 &ELECTRONS
            electron_maxstep = 50001,
                    conv_thr = 1.0D-6 ,
                 mixing_mode = 'local-TF' ,
                 mixing_beta = 0.5 ,
 /
ATOMIC_SPECIES
    C   12.01100  C.revpbe-n-kjpaw_psl.0.1.UPF 
    F   18.99800  F.revpbe-n-kjpaw_psl.0.1.UPF 
    O   15.99940  O.revpbe-n-kjpaw_psl.0.1.UPF 
ATOMIC_POSITIONS crystal 
C       -0.001126400  -0.003853394   0.006292580
C        0.243560028  -0.012879944   0.004703664
C        0.497273006  -0.003853394   0.006292580
C        0.751881974   0.003763949   0.009972030
C        0.002430304   0.248584900   0.006969473
C        0.083265500   0.162663003   0.005580955
C        0.249861764   0.240809649   0.004769324
C        0.325092847   0.150185693   0.004037019
C        0.490947886   0.240809649   0.004769324
C        0.579397502   0.162663003   0.005580955
C        0.746154595   0.248584900   0.006969473
C        0.834095304   0.168190608   0.008185670
C       -0.002515967   0.494968067   0.007731705
C        0.089962277   0.413797540   0.007437574
C        0.266247476   0.493964480   0.008033756
C        0.347755163   0.403041418   0.006543973
C        0.555286253   0.403041418   0.006543973
C        0.727717004   0.493964480   0.008033756
C        0.823835262   0.413797540   0.007437574
C       -0.009046549   0.741158126   0.007316920
C        0.079988415   0.659976830   0.007265205
C        0.250204674   0.741158126   0.007316920
C        0.340859844   0.661971729   0.009527223
C        0.506802624   0.755292624   0.011707451
F        0.656522489   0.813044980  -0.143320375
C        0.748490001   0.755292624   0.011707451
C        0.821111885   0.661971729   0.009527223
C        0.076506508   0.907167649   0.005824227
C        0.330661139   0.907167649   0.005824227
C        0.585408265   0.918984347   0.009258472
C        0.833576081   0.918984347   0.009258472
O        0.590210089   0.680420180   0.022901227
K_POINTS crystal_b 
4
0.0000000000    0.0000000000    0.0000000000 17
0.0000000000    0.5000000000    0.0000000000 10
0.3333333333    0.3333333333    0.0000000000 20
0.0000000000    0.0000000000    0.0000000000 1

