 &CONTROL
                 calculation = 'scf' ,
                      outdir = './tmp/' ,
                  pseudo_dir = '/home/deleted/pseudo_psl' ,
                      prefix = 'GF_op' ,
                   verbosity = 'high' ,
               etot_conv_thr = 1.0D-5 ,
               forc_conv_thr = 4.0D-4 ,
                       nstep = 1000 ,
                    dipfield = .true. ,
 /
 &SYSTEM
                       ibrav = 4,
                           A = 9.88 ,
                           C = 15 ,
                         nat = 32,
                        ntyp = 3,
                     ecutwfc = 40.424239707 ,
                     ecutrho = 404.24239707 ,
                 occupations = 'smearing' ,
                     degauss = 0.01 ,
				   input_dft = 'vdW-DF' ,
 /
 &ELECTRONS
            electron_maxstep = 50001,
                    conv_thr = 1.0D-6 ,
                 mixing_mode = 'local-TF' ,
                 mixing_beta = 0.5 ,
 /
ATOMIC_SPECIES
    C   12.01100  C.revpbe-n-kjpaw_psl.0.1.UPF 
    F   18.99800  F.revpbe-n-kjpaw_psl.0.1.UPF 
    O   15.99940  O.revpbe-n-kjpaw_psl.0.1.UPF 
ATOMIC_POSITIONS crystal 
C       -0.000267590   0.000250948   0.000072377
C        0.246642693  -0.005052942   0.007866259
C        0.498483653   0.000799422   0.011602950
C        0.748101702   0.002255399   0.000690314
C        0.000964913   0.251321289  -0.000041694
C        0.083225157   0.167281925   0.003509006
C        0.251159034   0.248666969   0.005298304
C        0.328202494   0.158979965   0.006332012
C        0.493803787   0.247902309   0.004210966
C        0.580401329   0.167163248   0.004277730
C        0.746582598   0.251359503   0.001854642
C        0.832221450   0.168714273  -0.000256081
C       -0.002354793   0.499038247   0.001466101
C        0.087061825   0.417254047   0.002787668
C        0.262060215   0.500397037   0.010482122
C        0.343681474   0.410767856   0.006252384
C        0.563698235   0.410742617   0.000180141
C        0.733284782   0.498707629  -0.006239238
C        0.825757406   0.417259212  -0.001036740
C       -0.004291093   0.747815402  -0.000291288
C        0.080528221   0.664632796   0.004698318
C        0.247965607   0.746031081   0.012927872
C        0.333098814   0.665474528   0.021701457
C        0.497770288   0.758044923   0.050322921
F        0.621442463   0.691747257  -0.074452637
C        0.763438607   0.761052687  -0.032418357
C        0.828788941   0.667379340  -0.013784010
C        0.079404949   0.913417038   0.002458232
C        0.330894953   0.913823824   0.013199069
C        0.584495519   0.921766419   0.017076885
C        0.834244110   0.920178232  -0.011065800
O        0.557486191   0.705148001   0.102404095
K_POINTS automatic 
  16 16 1   0 0 0 

