 &CONTROL
                 calculation = 'scf' ,
                      outdir = './tmp/' ,
                  pseudo_dir = '/home/deleted/pseudo_psl' ,
                      prefix = 'GBr_ip' ,
                   verbosity = 'high' ,
               etot_conv_thr = 1.0D-5 ,
               forc_conv_thr = 4.0D-4 ,
                       nstep = 1000 ,
                    dipfield = .true. ,
 /
 &SYSTEM
                       ibrav = 4,
                           A = 9.88 ,
                           C = 15 ,
                         nat = 34,
                        ntyp = 4,
                     ecutwfc = 40.424239707 ,
                     ecutrho = 404.24239707 ,
                 occupations = 'smearing' ,
                     degauss = 0.01 ,
				   input_dft = 'vdW-DF' ,
    nspin = 2 ,
    starting_magnetization(1) = 0.5,
    starting_magnetization(2) = 0.5,
    starting_magnetization(3) = 0.5,
 /
 &ELECTRONS
            electron_maxstep = 50001,
                    conv_thr = 1.0D-6 ,
                 mixing_mode = 'local-TF' ,
                 mixing_beta = 0.5 ,
 /
ATOMIC_SPECIES
    C   12.01100  C.revpbe-n-kjpaw_psl.0.1.UPF 
   Br   79.90350  Br.revpbe-n-kjpaw_psl.0.2.UPF 
    O   15.99940  O.revpbe-n-kjpaw_psl.0.1.UPF 
    H   1.008000  H.revpbe-kjpaw_psl.0.1.UPF
ATOMIC_POSITIONS (crystal)
C        0.013950684   0.022440237   0.000399172
C        0.266592141   0.029302413   0.003601878
C        0.512321917   0.022436302   0.000463856
C        0.760507287   0.017106962  -0.005966697
C        0.010213314   0.269466785   0.006139927
C        0.095990395   0.189716246   0.000720833
C        0.263838240   0.276904250  -0.007095531
C        0.349485068   0.195039678  -0.006286700
C        0.516976440   0.276867656  -0.008154762
C        0.597573570   0.189699855  -0.000077165
C        0.763118349   0.269456637   0.005421381
C        0.843362707   0.182860245   0.003688132
C        0.012865108   0.522016951   0.016661262
C        0.090804561   0.436110444   0.011588900
C        0.253864994   0.521149701   0.000603616
C        0.330562600   0.440318921  -0.014172718
C        0.613699927   0.440177049  -0.016160673
C        0.771246684   0.521083592  -0.001356161
C        0.849147280   0.436126879   0.010488415
C        0.019065443   0.775982429   0.010807630
C        0.096915120   0.690092755   0.016717999
C        0.260755839   0.776043347   0.011556352
C        0.338794986   0.691017153   0.000575410
C        0.496323390   0.771833007  -0.014135330
Br       0.554721870   0.606183787  -0.041196753
C        0.779397498   0.771901534  -0.015337780
C        0.856152328   0.690978724  -0.000985602
C        0.099740337   0.942682732   0.005729689
C        0.346797972   0.942670396   0.005984338
C        0.592985456   0.935240563  -0.007090720
C        0.846142649   0.935272508  -0.007497201
O        0.547814278   0.627481897   0.165557977
O        0.562965522   0.500579445   0.196071540
H        0.570981022   0.515624874   0.260944453
K_POINTS automatic 
  16 16 1   0 0 0 

