 &CONTROL
                 calculation = 'scf' ,
                      outdir = './tmp/' ,
                  pseudo_dir = '/home/deleted/pseudo_psl' ,
                      prefix = 'GCl_op' ,
                   verbosity = 'high' ,
               etot_conv_thr = 1.0D-5 ,
               forc_conv_thr = 4.0D-4 ,
                       nstep = 1000 ,
                    dipfield = .true. ,
 /
 &SYSTEM
                       ibrav = 4,
                           A = 9.88 ,
                           C = 15 ,
                         nat = 34,
                        ntyp = 4,
                     ecutwfc = 40.424239707 ,
                     ecutrho = 404.24239707 ,
                 occupations = 'smearing' ,
                     degauss = 0.01 ,
				   input_dft = 'vdW-DF' ,
    nspin = 2 ,
    starting_magnetization(1) = 0.5,
    starting_magnetization(2) = 0.5,
    starting_magnetization(3) = 0.5,
 /
 &ELECTRONS
            electron_maxstep = 50001,
                    conv_thr = 1.0D-6 ,
                 mixing_mode = 'local-TF' ,
                 mixing_beta = 0.5 ,
 /
ATOMIC_SPECIES
    C   12.01100  C.revpbe-n-kjpaw_psl.0.1.UPF 
   Cl   35.45200  Cl.revpbe-n-kjpaw_psl.0.3.0.UPF 
    O   15.99940  O.revpbe-n-kjpaw_psl.0.1.UPF 
    H   1.008000  H.revpbe-kjpaw_psl.0.1.UPF
ATOMIC_POSITIONS (crystal)
C        0.004561994   0.002813645  -0.001634188
C        0.250617397  -0.003002674  -0.008583970
C        0.502231726   0.002554621  -0.000416717
C        0.755842653   0.007472643   0.016257809
C        0.006130543   0.253493039  -0.000128725
C        0.088004415   0.169189256  -0.004199937
C        0.255345175   0.249523476  -0.008194259
C        0.332119312   0.159978697  -0.010108198
C        0.498347289   0.249214087  -0.008303903
C        0.585424689   0.168920872  -0.004021433
C        0.751586872   0.253459148   0.000337109
C        0.837641472   0.171122991   0.005395009
C        0.002841923   0.501334938  -0.001289213
C        0.092254133   0.419011734  -0.000701038
C        0.265592396   0.500038901   0.001606327
C        0.346377833   0.411455455  -0.004434214
C        0.569124864   0.411262716  -0.005080244
C        0.738599598   0.500021045   0.000162644
C        0.831050829   0.418923632  -0.000750808
C       -0.000056330   0.749087261  -0.004004253
C        0.085280894   0.666071316  -0.005456658
C        0.253651939   0.749141960  -0.003445498
C        0.340156481   0.668307390   0.008681855
C        0.497798523   0.762618194   0.030486995
Cl       0.589227897   0.681787644   0.097107917
C        0.763972415   0.761017313   0.021334300
C        0.831864885   0.668701048   0.005567047
C        0.083443057   0.915132976  -0.005634106
C        0.335876171   0.915147478  -0.004795520
C        0.587484790   0.923821665   0.016979428
C        0.839938473   0.923321324   0.013220594
O        0.369693901   0.731004293   0.217339571
O        0.399705420   0.603078131   0.198029087
H        0.406697807   0.755792050   0.278861721
K_POINTS automatic 
  16 16 1   0 0 0 

