 &CONTROL
                 calculation = 'scf' ,
                      outdir = './tmp_subs/' ,
                  pseudo_dir = '/home/deleted/pseudo_psl' ,
                      prefix = 'GF_op_subs' ,
                   verbosity = 'high' ,
               etot_conv_thr = 1.0D-5 ,
               forc_conv_thr = 4.0D-4 ,
                       nstep = 1000 ,
                    dipfield = .true. ,
 /
 &SYSTEM
                       ibrav = 4,
                           A = 9.88 ,
                           C = 15 ,
                         nat = 31,
                        ntyp = 2,
                     ecutwfc = 40.424239707 ,
                     ecutrho = 404.24239707 ,
                 occupations = 'smearing' ,
                     degauss = 0.01 ,
				   input_dft = 'vdW-DF' ,
 /
 &ELECTRONS
            electron_maxstep = 50001,
                    conv_thr = 1.0D-6 ,
                 mixing_mode = 'local-TF' ,
                 mixing_beta = 0.5 ,
 /
ATOMIC_SPECIES
    C   12.01100  C.revpbe-n-kjpaw_psl.0.1.UPF 
    F   18.99800  F.revpbe-n-kjpaw_psl.0.1.UPF 
ATOMIC_POSITIONS crystal 
C       -0.002713030   0.008432257   0.011023034
C        0.246198137   0.006119291   0.017055840
C        0.496951830   0.008613003   0.017174066
C        0.745876794   0.009390336   0.008174697
C       -0.002487688   0.258970469   0.011346077
C        0.079064801   0.174693343   0.016152329
C        0.245362817   0.255619560   0.018446911
C        0.328447445   0.171687354   0.016234479
C        0.494482249   0.255240836   0.010992024
C        0.579772244   0.174440560   0.009404388
C        0.745853192   0.259043962   0.007958396
C        0.829937668   0.175850578   0.007981762
C       -0.003809494   0.508186855   0.010359901
C        0.081868707   0.425465207   0.015117840
C        0.250968784   0.509144621   0.025092476
C        0.329145269   0.419176426   0.021032631
C        0.574797723   0.419435099   0.007053272
C        0.741124667   0.508004364  -0.002131544
C        0.827396877   0.425640854   0.004792800
C       -0.004522289   0.758135822   0.007720285
C        0.078996208   0.674177171   0.013628750
C        0.246066641   0.756595551   0.022306070
C        0.329499963   0.675160409   0.033402127
C        0.495017402   0.769506939   0.061815807
F        0.632786936   0.713713857  -0.080214334
C        0.765014919   0.771600178  -0.029008883
C        0.829630299   0.676939684  -0.008885434
C        0.079010361   0.923826773   0.012254197
C        0.329560941   0.924293782   0.020740887
C        0.581873938   0.928795479   0.023395596
C        0.832909377   0.928261652  -0.002625692
K_POINTS automatic 
  16 16 1   0 0 0 

