 &CONTROL
                 calculation = 'nscf' ,
                      outdir = './tmp/' ,
                  pseudo_dir = '/home/deleted/pseudo_psl' ,
                      prefix = 'PG_txc' ,
                    dipfield = .true. ,
                   verbosity = 'high',
                       nstep = 1000,
               forc_conv_thr = 4.0D-4,
               etot_conv_thr = 1.0D-5
 /
 &SYSTEM
                       ibrav = 4,
                           A = 9.88 ,
                           C = 15 ,
                         nat = 33,
                        ntyp = 2,
                     ecutwfc = 40.424239707 ,
                     ecutrho = 404.24239707 ,
                 occupations = 'tetrahedra' ,
                     degauss = 0.01 ,
				   input_dft = 'vdW-DF' ,
    nspin = 2 ,
    starting_magnetization(1) = 0.5,
	starting_magnetization(2) = 0.5,
 /
 &ELECTRONS
            electron_maxstep = 50001,
                    conv_thr = 1.0D-6 ,
                 mixing_mode = 'local-TF' ,
                 mixing_beta = 0.5 ,
 /
ATOMIC_SPECIES
    C   12.01100  C.revpbe-n-kjpaw_psl.0.1.UPF 
    O   15.99940  O.revpbe-n-kjpaw_psl.0.1.UPF 
ATOMIC_POSITIONS crystal 
C        0.000270873  -0.000240138  -0.003209966
C        0.250502325  -0.000655041  -0.005172489
C        0.500647049   0.000658778  -0.002186905
C        0.749169369   0.000227042   0.002451485
C        0.000026123   0.249823408  -0.003653403
C        0.083282525   0.166567105  -0.003700473
C        0.250090898   0.249571642  -0.003245554
C        0.333491247   0.166518151  -0.005083236
C        0.499671123   0.249399504  -0.005805498
C        0.583641360   0.166951894  -0.005774232
C        0.749820082   0.249818644  -0.005045709
C        0.833224474   0.166773271  -0.003146704
C        0.000026949   0.500035512  -0.005073457
C        0.083069254   0.416626308  -0.003182114
C        0.249612448   0.500672248   0.002437114
C        0.334169138   0.416108735   0.002409894
C        0.498488952   0.495609501   0.005579704
C        0.582693308   0.415699877  -0.002255701
C        0.750260006   0.499584825  -0.002985387
C        0.832847133   0.417000040  -0.005250613
C        0.000443319   0.750185331  -0.005796385
C        0.082890839   0.666214780  -0.005779256
C        0.249181983   0.749199282  -0.002168294
C        0.329088740   0.664986446   0.005596925
C        0.497665737   0.752180921   0.023688288
C        0.585661510   0.664184796   0.023729157
C        0.754224169   0.751348493   0.005551784
C        0.834140717   0.667153247  -0.002272024
C        0.083327298   0.916364183  -0.005053581
C        0.333084663   0.916760290  -0.002844147
C        0.584851210   0.920744967   0.005567950
C        0.833730694   0.915672751   0.002424483
O        0.541704479   0.708253210   0.109248343
K_POINTS automatic 
  20 20 1   0 0 0 

