 &BANDS
                      prefix = 'I' ,
                      outdir = './tmp/' ,
                     filband = 'I-bands' ,
                     plot_2d = .false. ,
 /
