 &CONTROL
                 calculation = 'nscf' ,
                      outdir = './tmp/' ,
                  pseudo_dir = '/home/deleted/pseudo_psl' ,
                      prefix = 'GF_ip' ,
                   verbosity = 'high' ,
               etot_conv_thr = 1.0D-5 ,
               forc_conv_thr = 4.0D-4 ,
                       nstep = 1000 ,
                    dipfield = .true. ,
 /
 &SYSTEM
                       ibrav = 4,
                           A = 9.88 ,
                           C = 15 ,
                         nat = 34,
                        ntyp = 4,
                     ecutwfc = 40.424239707 ,
                     ecutrho = 404.24239707 ,
                 occupations = 'tetrahedra' ,
                     degauss = 0.01 ,
				   input_dft = 'vdW-DF' ,
    nspin = 2 ,
    starting_magnetization(1) = 0.5,
    starting_magnetization(2) = 0.5,
    starting_magnetization(3) = 0.5,
 /
 &ELECTRONS
            electron_maxstep = 50001,
                    conv_thr = 1.0D-6 ,
                 mixing_mode = 'local-TF' ,
                 mixing_beta = 0.5 ,
 /
ATOMIC_SPECIES
    C   12.01100  C.revpbe-n-kjpaw_psl.0.1.UPF 
    F   18.99800  F.revpbe-n-kjpaw_psl.0.1.UPF 
    O   15.99940  O.revpbe-n-kjpaw_psl.0.1.UPF 
    H   1.008000  H.revpbe-kjpaw_psl.0.1.UPF
ATOMIC_POSITIONS (crystal)
C       -0.004210604  -0.028237371   0.013658397
C        0.242041589  -0.034088944   0.010046129
C        0.494052981  -0.029402272   0.001539194
C        0.747600099  -0.027363103   0.001345978
C       -0.001841549   0.221996291   0.002978180
C        0.080180377   0.137932998   0.006449061
C        0.247517107   0.218648781   0.006449150
C        0.324545619   0.129950488   0.008627650
C        0.491617967   0.219270217   0.006995554
C        0.578213182   0.137933908   0.004725072
C        0.744283301   0.221972789  -0.000251082
C        0.830179754   0.139568031   0.000501299
C       -0.004998795   0.469610070   0.002232127
C        0.084751073   0.387731106  -0.000053832
C        0.258548872   0.469463130  -0.005136326
C        0.339664407   0.381381451   0.001594168
C        0.561735781   0.381158687   0.007628025
C        0.732841864   0.470712495   0.011161432
C        0.824087653   0.387499288   0.003031749
C       -0.008102120   0.716547153   0.014521417
C        0.077834537   0.635115218   0.006015967
C        0.245810425   0.718531079   0.000996225
C        0.331845026   0.638092998  -0.012879284
C        0.490982660   0.731837692  -0.031753508
F        0.563496378   0.662018790  -0.073572871
C        0.753461595   0.728120015   0.050512289
C        0.826558856   0.635505267   0.022392758
C        0.076414005   0.884904932   0.015373854
C        0.327829941   0.884290952   0.004054239
C        0.579056301   0.890465350  -0.010103309
C        0.830206649   0.892562428   0.017429242
O        0.642201019   0.674836616   0.102988874
O        0.715036215   1.112523575   0.172789563
H        0.712195877   1.070702005   0.232252307
K_POINTS automatic 
  20 20 1   0 0 0 

