 &CONTROL
                 calculation = 'scf' ,
                      outdir = './tmp/' ,
                  pseudo_dir = '/home/deleted/pseudo_psl' ,
                      prefix = 'GCl_op' ,
                   verbosity = 'high' ,
               etot_conv_thr = 1.0D-5 ,
               forc_conv_thr = 4.0D-4 ,
                       nstep = 1000 ,
                    dipfield = .true. ,
 /
 &SYSTEM
                       ibrav = 4,
                           A = 9.88 ,
                           C = 15 ,
                         nat = 33,
                        ntyp = 3,
                     ecutwfc = 40.424239707 ,
                     ecutrho = 404.24239707 ,
                 occupations = 'smearing' ,
                     degauss = 0.01 ,
				   input_dft = 'vdW-DF' ,
    nspin = 2 ,
    starting_magnetization(1) = 0.5,
    starting_magnetization(2) = 0.5,
    starting_magnetization(3) = 0.5,
 /
 &ELECTRONS
            electron_maxstep = 50001,
                    conv_thr = 1.0D-6 ,
                 mixing_mode = 'local-TF' ,
                 mixing_beta = 0.5 ,
 /
ATOMIC_SPECIES
    C   12.01100  C.revpbe-n-kjpaw_psl.0.1.UPF 
   Cl   35.45200  Cl.revpbe-n-kjpaw_psl.0.3.0.UPF 
    O   15.99940  O.revpbe-n-kjpaw_psl.0.1.UPF 
ATOMIC_POSITIONS (crystal)
C       -0.003500147  -0.009766761  -0.005348484
C        0.241773022  -0.016453957  -0.013419985
C        0.493733385  -0.009766761  -0.005348484
C        0.747546588  -0.004906823   0.012416121
C       -0.002553614   0.240541209  -0.005002039
C        0.079772078   0.156608229  -0.009130959
C        0.247074105   0.236345993  -0.013329062
C        0.323379538   0.146759075  -0.015374459
C        0.489271889   0.236345993  -0.013329062
C        0.576836151   0.156608229  -0.009130959
C        0.743094822   0.240541209  -0.005002039
C        0.829435515   0.158871032   0.000409653
C       -0.006085324   0.487829352  -0.006010783
C        0.083619105   0.406132290  -0.005588612
C        0.257313219   0.486789417  -0.003262668
C        0.339839156   0.398621690  -0.009281027
C        0.558782533   0.398621690  -0.009281027
C        0.729476198   0.486789417  -0.003262668
C        0.822513184   0.406132290  -0.005588612
C       -0.008365975   0.735766594  -0.007522219
C        0.076469567   0.652939134  -0.009758254
C        0.244132569   0.735766594  -0.007522219
C        0.330477387   0.654557492   0.004204991
C        0.488554296   0.751092294   0.024087001
Cl       0.586196508   0.672393018   0.087247667
C        0.762537999   0.751092294   0.024087001
C        0.824080104   0.654557492   0.004204991
C        0.074991571   0.902094552  -0.009405684
C        0.327102980   0.902094552  -0.009405684
C        0.579702813   0.912404721   0.012078972
C        0.832701908   0.912404721   0.012078972
O        0.812195639   0.996763533   0.233078142
O        0.684567896   0.996763533   0.233078142
K_POINTS automatic 
  16 16 1   0 0 0 

