 &CONTROL
                 calculation = 'bands' ,
                      outdir = './tmp/' ,
                  pseudo_dir = '/home/deleted/pseudo_psl' ,
                      prefix = 'GF_op' ,
                   verbosity = 'high' ,
               etot_conv_thr = 1.0D-5 ,
               forc_conv_thr = 4.0D-4 ,
                       nstep = 1000 ,
                    dipfield = .true. ,
 /
 &SYSTEM
                       ibrav = 4,
                           A = 9.88 ,
                           C = 15 ,
                         nat = 34,
                        ntyp = 4,
                     ecutwfc = 40.424239707 ,
                     ecutrho = 404.24239707 ,
                 occupations = 'tetrahedra' ,
                     degauss = 0.01 ,
				   input_dft = 'vdW-DF' ,
 /
 &ELECTRONS
            electron_maxstep = 50001,
                    conv_thr = 1.0D-6 ,
                 mixing_mode = 'local-TF' ,
                 mixing_beta = 0.5 ,
 /
ATOMIC_SPECIES
    C   12.01100  C.revpbe-n-kjpaw_psl.0.1.UPF 
    F   18.99800  F.revpbe-n-kjpaw_psl.0.1.UPF 
    O   15.99940  O.revpbe-n-kjpaw_psl.0.1.UPF 
	H   1.00800   H.revpbe-kjpaw_psl.0.1.UPF
ATOMIC_POSITIONS crystal 
C       -0.036634727  -0.022885087   0.011020187
C        0.212969128  -0.024343462   0.013420683
C        0.464476536  -0.018630569   0.014292640
C        0.713570239  -0.017637295   0.006017638
C       -0.035975648   0.232832995   0.006976672
C        0.046499613   0.147348655   0.038313723
C        0.219906282   0.231005856   0.015134569
C        0.294953149   0.139913828   0.011875814
C        0.459853674   0.228165077   0.004923204
C        0.546053228   0.147150771   0.004585147
C        0.712190165   0.232051223   0.000199154
C        0.798635210   0.150274484   0.002447795
C       -0.037613152   0.479274405  -0.001230967
C        0.050805391   0.396513453   0.003119589
C        0.226410626   0.480825059   0.011641166
C        0.309125741   0.389418027   0.008839388
C        0.530397712   0.391329357  -0.001182228
C        0.698452755   0.479123323  -0.008801570
C        0.791510494   0.397547325  -0.003771694
C       -0.038685447   0.728090567  -0.000389309
C        0.046376079   0.645105554   0.003550550
C        0.212328919   0.725739421   0.014021593
C        0.297093948   0.643421302   0.022249252
C        0.462807880   0.736690225   0.051764818
F        0.589297459   0.677288778  -0.073832379
C        0.730820378   0.743410692  -0.031273130
C        0.795135791   0.648290456  -0.015023167
C        0.044510625   0.893486646   0.007733873
C        0.297013173   0.894182971   0.016139293
C        0.551886971   0.902592197   0.020303500
C        0.801683892   0.900703949  -0.005204391
O        0.519479588   0.683567545   0.105139508
O        1.032585703   1.152308096   0.137844875
H        1.085569646   1.100661536   0.163911005
K_POINTS crystal_b 
4
0.0000000000    0.0000000000    0.0000000000 17
0.0000000000    0.5000000000    0.0000000000 10
0.3333333333    0.3333333333    0.0000000000 20
0.0000000000    0.0000000000    0.0000000000 1

