 &CONTROL
                 calculation = 'nscf' ,
                      outdir = './tmp/' ,
                  pseudo_dir = '/home/deleted/pseudo_psl' ,
                      prefix = 'GF_ip' ,
                   verbosity = 'high' ,
               etot_conv_thr = 1.0D-5 ,
               forc_conv_thr = 4.0D-4 ,
                       nstep = 1000 ,
                    dipfield = .true. ,
 /
 &SYSTEM
                       ibrav = 4,
                           A = 9.88 ,
                           C = 15 ,
                         nat = 33,
                        ntyp = 3,
                     ecutwfc = 40.424239707 ,
                     ecutrho = 404.24239707 ,
                 occupations = 'tetrahedra' ,
                     degauss = 0.01 ,
				   input_dft = 'vdW-DF' ,
    nspin = 2 ,
    starting_magnetization(1) = 0.5,
    starting_magnetization(2) = 0.5,
    starting_magnetization(3) = 0.5,
 /
 &ELECTRONS
            electron_maxstep = 50001,
                    conv_thr = 1.0D-6 ,
                 mixing_mode = 'local-TF' ,
                 mixing_beta = 0.5 ,
 /
ATOMIC_SPECIES
    C   12.01100  C.revpbe-n-kjpaw_psl.0.1.UPF 
    F   18.99800  F.revpbe-n-kjpaw_psl.0.1.UPF 
    O   15.99940  O.revpbe-n-kjpaw_psl.0.1.UPF 
ATOMIC_POSITIONS (crystal)
C       -0.007342029  -0.001534821   0.003307449
C        0.236576206  -0.009883724   0.006739428
C        0.488815235  -0.001564268   0.003401083
C        0.743677429   0.004349092  -0.004377871
C       -0.006136832   0.249245232   0.002110059
C        0.075858454   0.164689687   0.004330891
C        0.242770047   0.243179028   0.006013710
C        0.317995529   0.152892091   0.007196536
C        0.483516462   0.243193565   0.006089278
C        0.571893260   0.164674424   0.004428616
C        0.738452642   0.249250514   0.002149566
C        0.825748206   0.168454969  -0.000272727
C       -0.010549534   0.495774584   0.002521051
C        0.080571960   0.414459080   0.002447101
C        0.255187707   0.493765152   0.002014257
C        0.338312732   0.405313681   0.004022619
C        0.550168256   0.405339569   0.004096760
C        0.721759233   0.493823057   0.002035468
C        0.817021019   0.414475833   0.002433811
C       -0.013844233   0.743156632   0.003711958
C        0.071897265   0.660709282   0.004122740
C        0.240069617   0.743120293   0.003793499
C        0.328336962   0.661463892  -0.000098229
C        0.487625049   0.761007917  -0.004948674
F        0.581718200   0.680558979  -0.031375345
C        0.756539471   0.761081075  -0.004967885
C        0.816257627   0.661507859  -0.000167421
C        0.069859356   0.909207907   0.005089676
C        0.322355838   0.909162416   0.005147485
C        0.577204080   0.920823114  -0.003504971
C        0.826657695   0.920865056  -0.003586723
O        0.612156577   0.736909312   0.168654723
O        0.685630097   0.876237661   0.197442082
K_POINTS automatic 
  20 20 1   0 0 0 

