 &CONTROL
                 calculation = 'relax' ,
                      outdir = './tmp/' ,
                  pseudo_dir = '/home/deleted/pseudo_psl' ,
                      prefix = 'GCl_ip' ,
                   verbosity = 'high' ,
               etot_conv_thr = 1.0D-5 ,
               forc_conv_thr = 4.0D-4 ,
                       nstep = 1000 ,
                    dipfield = .true. ,
 /
 &SYSTEM
                       ibrav = 4,
                           A = 9.88 ,
                           C = 15 ,
                         nat = 33,
                        ntyp = 3,
                     ecutwfc = 40.424239707 ,
                     ecutrho = 404.24239707 ,
                 occupations = 'smearing' ,
                     degauss = 0.01 ,
				   input_dft = 'vdW-DF' ,
    nspin = 2 ,
    starting_magnetization(1) = 0.5,
    starting_magnetization(2) = 0.5,
    starting_magnetization(3) = 0.5,
 /
 &ELECTRONS
            electron_maxstep = 50001,
                    conv_thr = 1.0D-6 ,
                 mixing_mode = 'local-TF' ,
                 mixing_beta = 0.5 ,
 /
 &IONS
                ion_dynamics = 'bfgs' ,
 /
ATOMIC_SPECIES
    C   12.01100  C.revpbe-n-kjpaw_psl.0.1.UPF 
   Cl   35.45200  Cl.revpbe-n-kjpaw_psl.0.3.0.UPF 
    O   15.99940  O.revpbe-n-kjpaw_psl.0.1.UPF 
ATOMIC_POSITIONS crystal 
C        0.002406721   0.002175790   0.000000000
C        0.251157215   0.002314429   0.000000000
C        0.499769069   0.002175790   0.000000000
C        0.751002277   0.002004554   0.000000000
C        0.000056476   0.250405050   0.000000000
C        0.083129713   0.167263493   0.000000000
C        0.249335931   0.250397521   0.000000000
C        0.333358128   0.166716257   0.000000000
C        0.501061590   0.250397521   0.000000000
C        0.584133779   0.167263493   0.000000000
C        0.750348574   0.250405050   0.000000000
C        0.833330167   0.166660334   0.000000000
C        0.000319019   0.500638038   0.000000000
C        0.082158926   0.416293428   0.000000000
C        0.249420558   0.498603780   0.000000000
C        0.325809405   0.411577854   0.000000000
C        0.585768448   0.411577854   0.000000000
C        0.749183222   0.498603780   0.000000000
C        0.834134501   0.416293428   0.000000000
C        0.003182478   0.752035397   0.000000000
C        0.083661682   0.667323366   0.000000000
C        0.248852919   0.752035397   0.000000000
C        0.330509706   0.668523458   0.000000000
C        0.492485701   0.759333282   0.000000000
Cl       0.565183192   0.630366386   0.000000000
C        0.766847580   0.759333282   0.000000000
C        0.838013751   0.668523458   0.000000000
C        0.084643214   0.918236620   0.000000000
C        0.333593406   0.918236620   0.000000000
C        0.583846661   0.920475982   0.000000000
C        0.836629320   0.920475982   0.000000000
O        0.500000000   0.500000000   0.159666667
O        0.500000000   0.500000000   0.240333333
K_POINTS automatic 
  4 4 1   0 0 0 

