 &CONTROL
                 calculation = 'scf' ,
                      outdir = './tmp_subs/' ,
                  pseudo_dir = '/home/deleted/pseudo_psl' ,
                      prefix = 'GBr_ip_subs' ,
                   verbosity = 'high' ,
               etot_conv_thr = 1.0D-5 ,
               forc_conv_thr = 4.0D-4 ,
                       nstep = 1000 ,
                    dipfield = .true. ,
 /
 &SYSTEM
                       ibrav = 4,
                           A = 9.88 ,
                           C = 15 ,
                         nat = 31,
                        ntyp = 2,
                     ecutwfc = 40.424239707 ,
                     ecutrho = 404.24239707 ,
                 occupations = 'smearing' ,
                     degauss = 0.01 ,
				   input_dft = 'vdW-DF' ,
 /
 &ELECTRONS
            electron_maxstep = 50001,
                    conv_thr = 1.0D-6 ,
                 mixing_mode = 'local-TF' ,
                 mixing_beta = 0.5 ,
 /
ATOMIC_SPECIES
    C   12.01100  C.revpbe-n-kjpaw_psl.0.1.UPF 
   Br   79.90350  Br.revpbe-n-kjpaw_psl.0.2.UPF 
ATOMIC_POSITIONS crystal 
C        0.007571278   0.013494131   0.003001397
C        0.260080509   0.020161018   0.005598891
C        0.505922854   0.013494131   0.003001397
C        0.754033412   0.008066823  -0.002414530
C        0.003722275   0.260378890   0.008319719
C        0.089414620   0.180515357   0.003214897
C        0.257120076   0.267650365  -0.003837083
C        0.342932374   0.185864748  -0.002966851
C        0.510530290   0.267650365  -0.003837083
C        0.591100735   0.180515357   0.003214897
C        0.756656615   0.260378890   0.008319719
C        0.836887177   0.173774353   0.006284281
C        0.006505642   0.513011285   0.017965101
C        0.084252233   0.426960684   0.013251755
C        0.247408082   0.512037951   0.003586770
C        0.324477598   0.431076490  -0.009413156
C        0.606598890   0.431076490  -0.009413156
C        0.764629869   0.512037951   0.003586770
C        0.842708450   0.426960684   0.013251755
C        0.012826908   0.767071176   0.012671569
C        0.090510002   0.681020004   0.017597731
C        0.254244269   0.767071176   0.012671569
C        0.332426672   0.682052776   0.003365619
C        0.490409725   0.763024959  -0.009399642
Br       0.548218068   0.596436137  -0.033264117
C        0.772615234   0.763024959  -0.009399642
C        0.849626103   0.682052776   0.003365619
C        0.093279138   0.933602643   0.007683194
C        0.340323504   0.933602643   0.007683194
C        0.586467086   0.926339537  -0.003616623
C        0.839872450   0.926339537  -0.003616623
K_POINTS automatic 
  16 16 1   0 0 0 

