 &CONTROL
                 calculation = 'scf' ,
                      outdir = './tmp/' ,
                  pseudo_dir = '/home/deleted/pseudo_psl' ,
                      prefix = 'GBr_ip' ,
                   verbosity = 'high' ,
               etot_conv_thr = 1.0D-5 ,
               forc_conv_thr = 4.0D-4 ,
                       nstep = 1000 ,
                    dipfield = .true. ,
 /
 &SYSTEM
                       ibrav = 4,
                           A = 9.88 ,
                           C = 15 ,
                         nat = 34,
                        ntyp = 4,
                     ecutwfc = 40.424239707 ,
                     ecutrho = 404.24239707 ,
                 occupations = 'smearing' ,
                     degauss = 0.01 ,
				   input_dft = 'vdW-DF' ,
 /
 &ELECTRONS
            electron_maxstep = 50001,
                    conv_thr = 1.0D-6 ,
                 mixing_mode = 'local-TF' ,
                 mixing_beta = 0.5 ,
 /
ATOMIC_SPECIES
    C   12.01100  C.revpbe-n-kjpaw_psl.0.1.UPF 
   Br   79.90350  Br.revpbe-n-kjpaw_psl.0.2.UPF 
    O   15.99940  O.revpbe-n-kjpaw_psl.0.1.UPF 
    H   1.008000  H.revpbe-kjpaw_psl.0.1.UPF
ATOMIC_POSITIONS crystal 
C        0.014979141   0.025585951   0.002375023
C        0.267539064   0.032344109   0.004891582
C        0.513330204   0.025488896   0.002015557
C        0.761320379   0.019842545  -0.003341477
C        0.011090028   0.272401987   0.005430521
C        0.096899166   0.192573342   0.001961291
C        0.264730050   0.280045348  -0.003023740
C        0.350465113   0.198271756  -0.001919575
C        0.518015331   0.279964956  -0.002310851
C        0.598422687   0.192475274   0.002402782
C        0.764126859   0.272330672   0.006010661
C        0.844307556   0.185778050   0.003636080
C        0.013974280   0.524997184   0.013856200
C        0.091503538   0.438941024   0.009522322
C        0.254862843   0.524153829   0.002689183
C        0.332936221   0.443658155  -0.006676289
C        0.613415380   0.443719952  -0.005023789
C        0.772019066   0.524128649   0.004664579
C        0.850321828   0.438869720   0.010660145
C        0.020407818   0.779227987   0.011101962
C        0.097995138   0.693107084   0.014289614
C        0.261621419   0.779159967   0.010040004
C        0.339700349   0.694026607   0.002430766
C        0.498159052   0.774477813  -0.007878828
Br       0.556144374   0.609136513  -0.028279095
C        0.778997601   0.774417073  -0.006478522
C        0.857069752   0.694091446   0.004310294
C        0.100792141   0.945799982   0.006773763
C        0.347760518   0.945751750   0.006286972
C        0.593720434   0.938071557  -0.004045736
C        0.847169270   0.938128593  -0.003483771
O        0.558820346   0.629471049   0.137341246
O        0.479184827   0.478012376   0.178653720
H        0.565954877   0.463455304   0.197888736
K_POINTS automatic 
  16 16 1   0 0 0 

