 &CONTROL
                 calculation = 'relax' ,
                      outdir = './tmp/' ,
                  pseudo_dir = '/home/deleted/pseudo_psl' ,
                      prefix = 'GBr_ip' ,
                   verbosity = 'high' ,
               etot_conv_thr = 1.0D-5 ,
               forc_conv_thr = 4.0D-4 ,
                       nstep = 1000 ,
                    dipfield = .true. ,
 /
 &SYSTEM
                       ibrav = 4,
                           A = 9.88 ,
                           C = 15 ,
                         nat = 34,
                        ntyp = 4,
                     ecutwfc = 40.424239707 ,
                     ecutrho = 404.24239707 ,
                 occupations = 'smearing' ,
                     degauss = 0.01 ,
				   input_dft = 'vdW-DF' ,
 /
 &ELECTRONS
            electron_maxstep = 50001,
                    conv_thr = 1.0D-6 ,
                 mixing_mode = 'local-TF' ,
                 mixing_beta = 0.5 ,
 /
 &IONS
                ion_dynamics = 'bfgs' ,
 /
ATOMIC_SPECIES
    C   12.01100  C.revpbe-n-kjpaw_psl.0.1.UPF 
   Br   79.90350  Br.revpbe-n-kjpaw_psl.0.2.UPF 
    O   15.99940  O.revpbe-n-kjpaw_psl.0.1.UPF 
    H   1.008000  H.revpbe-kjpaw_psl.0.1.UPF
ATOMIC_POSITIONS crystal 
C        0.014967761   0.025592661   0.002375787
C        0.267551609   0.032360871   0.004941411
C        0.513334806   0.025488674   0.002020013
C        0.761307838   0.019811357  -0.003362894
C        0.011062661   0.272391312   0.005401970
C        0.096901053   0.192588608   0.001977572
C        0.264729641   0.280056850  -0.003019339
C        0.350482424   0.198286807  -0.001910615
C        0.518010234   0.279977014  -0.002304626
C        0.598423210   0.192473465   0.002429871
C        0.764092264   0.272293951   0.006024810
C        0.844298871   0.185733894   0.003604875
C        0.013988045   0.524994601   0.013873156
C        0.091501606   0.438939929   0.009504405
C        0.254871619   0.524145454   0.002679662
C        0.332980953   0.443683587  -0.006695840
C        0.613417944   0.443760249  -0.005015599
C        0.772026663   0.524116520   0.004649551
C        0.850305237   0.438826799   0.010654480
C        0.020399526   0.779245610   0.011112971
C        0.097999898   0.693116576   0.014293477
C        0.261622512   0.779148372   0.010046281
C        0.339705803   0.694032252   0.002456178
C        0.498159314   0.774495192  -0.007911891
Br       0.556191050   0.609211796  -0.028289247
C        0.778989601   0.774389285  -0.006508418
C        0.857063505   0.694068927   0.004318188
C        0.100782583   0.945820461   0.006783421
C        0.347755569   0.945748241   0.006304759
C        0.593705914   0.938056867  -0.004049468
C        0.847142692   0.938097662  -0.003491170
O        0.558794954   0.629445688   0.137325355
O        0.479233467   0.478067742   0.178661598
H        0.565955819   0.463439228   0.197890646
K_POINTS automatic 
  4 4 1   0 0 0 

