 &CONTROL
                 calculation = 'bands' ,
                      outdir = './tmp/' ,
                  pseudo_dir = '/home/deleted/pseudo_psl' ,
                      prefix = 'GBr_ip' ,
                   verbosity = 'high' ,
               etot_conv_thr = 1.0D-5 ,
               forc_conv_thr = 4.0D-4 ,
                       nstep = 1000 ,
                    dipfield = .true. ,
 /
 &SYSTEM
                       ibrav = 4,
                           A = 9.88 ,
                           C = 15 ,
                         nat = 34,
                        ntyp = 4,
                     ecutwfc = 40.424239707 ,
                     ecutrho = 404.24239707 ,
                 occupations = 'tetrahedra' ,
                     degauss = 0.01 ,
				   input_dft = 'vdW-DF' ,
 /
 &ELECTRONS
            electron_maxstep = 50001,
                    conv_thr = 1.0D-6 ,
                 mixing_mode = 'local-TF' ,
                 mixing_beta = 0.5 ,
 /
ATOMIC_SPECIES
    C   12.01100  C.revpbe-n-kjpaw_psl.0.1.UPF 
   Br   79.90350  Br.revpbe-n-kjpaw_psl.0.2.UPF 
    O   15.99940  O.revpbe-n-kjpaw_psl.0.1.UPF 
    H   1.008000  H.revpbe-kjpaw_psl.0.1.UPF
ATOMIC_POSITIONS crystal 
C        0.006480757   0.007062355  -0.003295589
C        0.258894918   0.013624436  -0.001174504
C        0.504719444   0.006707580  -0.004870483
C        0.752705532   0.001512675  -0.010376707
C        0.002619384   0.254040204   0.000387862
C        0.088484847   0.174285765  -0.004678065
C        0.256226891   0.261472825  -0.013144620
C        0.341697183   0.179458447  -0.010617301
C        0.509227702   0.261246078  -0.010466928
C        0.589946426   0.173927082  -0.003425200
C        0.755509221   0.253874764   0.002113482
C        0.835731310   0.167337808  -0.000878072
C        0.005614715   0.506477602   0.011643149
C        0.083312691   0.420675968   0.004432696
C        0.245935454   0.505706888  -0.008500257
C        0.322576290   0.424716698  -0.022928256
C        0.605698572   0.424972171  -0.015172055
C        0.763254024   0.505597688  -0.000657287
C        0.841652719   0.420435330   0.008366728
C        0.011748564   0.760608773   0.008176644
C        0.089692110   0.674593076   0.011409573
C        0.253133165   0.760372319   0.003911259
C        0.330763234   0.675437243  -0.008787341
C        0.488325760   0.756473820  -0.023335577
Br       0.548156183   0.590624986  -0.045640949
C        0.771369556   0.756168695  -0.015263719
C        0.848216290   0.675506448  -0.000721719
C        0.092159546   0.927151330   0.001955701
C        0.339124688   0.926977160  -0.000012983
C        0.585265636   0.919511740  -0.013144656
C        0.838456707   0.919766398  -0.010211514
O        0.506860395   0.588116371   0.164618726
O        0.378024757   0.611898769   0.179964189
H        0.478067085   0.492509445   0.198619704
K_POINTS crystal_b 
4
0.0000000000    0.0000000000    0.0000000000 17
0.0000000000    0.5000000000    0.0000000000 10
0.3333333333    0.3333333333    0.0000000000 20
0.0000000000    0.0000000000    0.0000000000 1

