 &CONTROL
                 calculation = 'relax' ,
                      outdir = './tmp/' ,
                  pseudo_dir = '/home/deleted/pseudo_psl' ,
                      prefix = 'GCl_ip' ,
                   verbosity = 'high' ,
               etot_conv_thr = 1.0D-5 ,
               forc_conv_thr = 4.0D-4 ,
                       nstep = 1000 ,
                    dipfield = .true. ,
 /
 &SYSTEM
                       ibrav = 4,
                           A = 9.88 ,
                           C = 15 ,
                         nat = 34,
                        ntyp = 4,
                     ecutwfc = 40.424239707 ,
                     ecutrho = 404.24239707 ,
                 occupations = 'smearing' ,
                     degauss = 0.01 ,
				   input_dft = 'vdW-DF' ,
 /
 &ELECTRONS
            electron_maxstep = 50001,
                    conv_thr = 1.0D-6 ,
                 mixing_mode = 'local-TF' ,
                 mixing_beta = 0.5 ,
 /
 &IONS
                ion_dynamics = 'bfgs' ,
 /
ATOMIC_SPECIES
    C   12.01100  C.revpbe-n-kjpaw_psl.0.1.UPF 
   Cl   35.45200  Cl.revpbe-n-kjpaw_psl.0.3.0.UPF 
    O   15.99940  O.revpbe-n-kjpaw_psl.0.1.UPF 
    H   1.008000  H.revpbe-kjpaw_psl.0.1.UPF
ATOMIC_POSITIONS crystal 
C       -0.008037481  -0.003010475   0.011037083
C        0.241511022  -0.004671126   0.017613296
C        0.492493223  -0.002251446   0.017410982
C        0.741600612  -0.001550542   0.007113763
C       -0.007110314   0.248135371   0.011549975
C        0.074041720   0.163536179   0.016725885
C        0.240622366   0.244764560   0.019107014
C        0.323885993   0.161022785   0.016825153
C        0.490030807   0.244741442   0.011532213
C        0.575178878   0.163667461   0.009777819
C        0.741269247   0.248204225   0.008195659
C        0.825397569   0.164975352   0.007904521
C       -0.008442815   0.497315662   0.010910433
C        0.077249669   0.414618026   0.015598499
C        0.246333452   0.498379125   0.025647355
C        0.324499124   0.408478096   0.021325149
C        0.570558094   0.409029056   0.006899522
C        0.737000455   0.497556278  -0.002996304
C        0.822901442   0.414821053   0.004899051
C       -0.009627581   0.747181068   0.008159771
C        0.074060809   0.663249842   0.014584605
C        0.241291553   0.745787861   0.023171462
C        0.324823372   0.664384443   0.034102297
C        0.490997466   0.758686745   0.061823687
Cl       0.617209044   0.699030987  -0.119396095
C        0.760560162   0.760600824  -0.035303046
C        0.825125834   0.666402228  -0.010779554
C        0.074271489   0.912934591   0.012553502
C        0.325014716   0.913505951   0.021310971
C        0.577646501   0.917920097   0.023127697
C        0.827870043   0.916688454  -0.005108133
O        0.550632945   0.714470188   0.119365942
O        0.485807244   0.484728981   0.015309830
H        0.606930379   0.562271536   0.094487512
K_POINTS automatic 
  4 4 1   0 0 0 

