 &CONTROL
                 calculation = 'relax' ,
                      outdir = './tmp/' ,
                  pseudo_dir = '/home/deleted/pseudo_psl' ,
                      prefix = 'GCl_ip' ,
                   verbosity = 'high' ,
               etot_conv_thr = 1.0D-5 ,
               forc_conv_thr = 4.0D-4 ,
                       nstep = 1000 ,
                    dipfield = .true. ,
 /
 &SYSTEM
                       ibrav = 4,
                           A = 9.88 ,
                           C = 15 ,
                         nat = 33,
                        ntyp = 3,
                     ecutwfc = 40.424239707 ,
                     ecutrho = 404.24239707 ,
                 occupations = 'smearing' ,
                     degauss = 0.01 ,
				   input_dft = 'vdW-DF' ,
 /
 &ELECTRONS
            electron_maxstep = 50001,
                    conv_thr = 1.0D-6 ,
                 mixing_mode = 'local-TF' ,
                 mixing_beta = 0.5 ,
 /
 &IONS
                ion_dynamics = 'bfgs' ,
 /
ATOMIC_SPECIES
    C   12.01100  C.revpbe-n-kjpaw_psl.0.1.UPF 
   Cl   35.45200  Cl.revpbe-n-kjpaw_psl.0.3.0.UPF 
    O   15.99940  O.revpbe-n-kjpaw_psl.0.1.UPF 
ATOMIC_POSITIONS crystal 
C       -0.007894169  -0.002562894   0.010863969
C        0.241370946  -0.004744222   0.017272838
C        0.492142968  -0.002808511   0.014978830
C        0.741610498  -0.001663300   0.005824644
C       -0.007754248   0.248153806   0.012765313
C        0.073695071   0.163919983   0.017361253
C        0.240262917   0.244863902   0.019581673
C        0.323467682   0.160966472   0.015986538
C        0.489404753   0.244471507   0.010303246
C        0.574684709   0.163372859   0.008187413
C        0.740744246   0.248017124   0.008722052
C        0.824912545   0.164877087   0.008016402
C       -0.009076356   0.497271547   0.014132582
C        0.076555765   0.414468974   0.018328035
C        0.245960793   0.498063843   0.027291554
C        0.324312191   0.408481171   0.022183936
C        0.570056403   0.408839347   0.006687629
C        0.736817316   0.497543078  -0.001825146
C        0.822386310   0.414655554   0.007235308
C       -0.009498698   0.747589886   0.009142664
C        0.073783013   0.663281904   0.016520296
C        0.241199692   0.745459780   0.023456880
C        0.325104478   0.664259559   0.034166979
C        0.492085790   0.758881348   0.060374748
Cl       0.619855939   0.699177003  -0.120965307
C        0.761471501   0.760592971  -0.035778976
C        0.825461123   0.666385910  -0.010102929
C        0.074528289   0.913401698   0.012967316
C        0.324811744   0.913131319   0.020000153
C        0.577459962   0.917541333   0.020907384
C        0.828365127   0.917027477  -0.006112446
O        0.553184923   0.715699164   0.117666710
O        0.485193437   0.484716660   0.013858460
K_POINTS automatic 
  4 4 1   0 0 0 

