 &CONTROL
                 calculation = 'bands' ,
                      outdir = './tmp/' ,
                  pseudo_dir = '/home/deleted/pseudo_psl' ,
                      prefix = 'GCl_op' ,
                   verbosity = 'high' ,
               etot_conv_thr = 1.0D-5 ,
               forc_conv_thr = 4.0D-4 ,
                       nstep = 1000 ,
                    dipfield = .true. ,
 /
 &SYSTEM
                       ibrav = 4,
                           A = 9.88 ,
                           C = 15 ,
                         nat = 34,
                        ntyp = 4,
                     ecutwfc = 40.424239707 ,
                     ecutrho = 404.24239707 ,
                 occupations = 'tetrahedra' ,
                     degauss = 0.01 ,
				   input_dft = 'vdW-DF' ,
    nspin = 2 ,
    starting_magnetization(1) = 0.5,
    starting_magnetization(2) = 0.5,
    starting_magnetization(3) = 0.5,
 /
 &ELECTRONS
            electron_maxstep = 50001,
                    conv_thr = 1.0D-6 ,
                 mixing_mode = 'local-TF' ,
                 mixing_beta = 0.5 ,
 /
ATOMIC_SPECIES
    C   12.01100  C.revpbe-n-kjpaw_psl.0.1.UPF 
   Cl   35.45200  Cl.revpbe-n-kjpaw_psl.0.3.0.UPF 
    O   15.99940  O.revpbe-n-kjpaw_psl.0.1.UPF 
    H   1.008000  H.revpbe-kjpaw_psl.0.1.UPF
ATOMIC_POSITIONS (crystal)
C        0.022652740   0.013963407   0.001880902
C        0.268742240   0.008283657  -0.005410864
C        0.520340695   0.013794210   0.003331308
C        0.773970568   0.018634386   0.020255692
C        0.024168710   0.264580929   0.002896705
C        0.106006749   0.180282179  -0.001277737
C        0.273274436   0.260649316  -0.005765084
C        0.350200243   0.171203476  -0.007272647
C        0.516459931   0.260404700  -0.005359118
C        0.603502282   0.180139319  -0.000661249
C        0.769626219   0.264576956   0.003569823
C        0.855659283   0.182140147   0.008754487
C        0.020871985   0.512431110   0.001910554
C        0.110252192   0.430071848   0.002227381
C        0.283553873   0.511065375   0.004471662
C        0.364025901   0.422505155  -0.002345226
C        0.587359415   0.422394276  -0.002184635
C        0.756653469   0.511121538   0.003506566
C        0.849107866   0.430040003   0.002436717
C        0.018051080   0.760288638  -0.000560919
C        0.103258842   0.677156104  -0.002047618
C        0.271659233   0.760322687   0.000142245
C        0.358167967   0.679489069   0.012289080
C        0.515749807   0.773729814   0.034317577
Cl       0.606909299   0.690653499   0.099041753
C        0.782857894   0.772423218   0.026412425
C        0.850070941   0.679921204   0.009404266
C        0.101554352   0.926322619  -0.002248983
C        0.353975603   0.926367547  -0.001297422
C        0.605472342   0.935032211   0.021001184
C        0.858286251   0.934578383   0.017506783
O        0.403563386   0.603163148   0.193719108
O        0.417709426   0.472126112   0.228259161
H        0.441626474   0.501343167   0.290971507
K_POINTS automatic 
  20 20 1   0 0 0 

