 &CONTROL
                 calculation = 'scf' ,
                      outdir = './tmp/' ,
                  pseudo_dir = '/home/deleted/pseudo_psl' ,
                      prefix = 'GCl_ip' ,
                   verbosity = 'high' ,
               etot_conv_thr = 1.0D-5 ,
               forc_conv_thr = 4.0D-4 ,
                       nstep = 1000 ,
                    dipfield = .true. ,
 /
 &SYSTEM
                       ibrav = 4,
                           A = 9.88 ,
                           C = 15 ,
                         nat = 34,
                        ntyp = 4,
                     ecutwfc = 40.424239707 ,
                     ecutrho = 404.24239707 ,
                 occupations = 'smearing' ,
                     degauss = 0.01 ,
				   input_dft = 'vdW-DF' ,
    nspin = 2 ,
    starting_magnetization(1) = 0.5,
    starting_magnetization(2) = 0.5,
    starting_magnetization(3) = 0.5,
 /
 &ELECTRONS
            electron_maxstep = 50001,
                    conv_thr = 1.0D-6 ,
                 mixing_mode = 'local-TF' ,
                 mixing_beta = 0.5 ,
 /
ATOMIC_SPECIES
    C   12.01100  C.revpbe-n-kjpaw_psl.0.1.UPF 
   Cl   35.45200  Cl.revpbe-n-kjpaw_psl.0.3.0.UPF 
    O   15.99940  O.revpbe-n-kjpaw_psl.0.1.UPF 
    H   1.008000  H.revpbe-kjpaw_psl.0.1.UPF
ATOMIC_POSITIONS (crystal)
C        0.004195525   0.013423180   0.000197009
C        0.256685949   0.019510268   0.000700193
C        0.503086644   0.013429071   0.000213243
C        0.751095437   0.008331375  -0.000507971
C        0.001052958   0.260879305   0.000985504
C        0.086694924   0.180715420   0.000622082
C        0.255122093   0.268384297   0.000195752
C        0.339819706   0.185779635   0.000190637
C        0.507127328   0.268395023  -0.000061178
C        0.587894835   0.180721831   0.000335147
C        0.753675812   0.260870775   0.000721094
C        0.834234749   0.174593263   0.000592790
C        0.003470633   0.513115093   0.001438838
C        0.081705756   0.427401129   0.001383230
C        0.246058048   0.512345316   0.000554374
C        0.326177269   0.432836239  -0.000433344
C        0.600498538   0.432848361  -0.000850430
C        0.760122171   0.512331963  -0.000199881
C        0.839530303   0.427395831   0.000930700
C        0.009213289   0.766780909   0.000559926
C        0.087464677   0.681101161   0.001339645
C        0.251416259   0.766774800   0.001145217
C        0.330816221   0.681808503   0.000162796
C        0.490417857   0.761336707  -0.001549318
Cl       0.545537118   0.597289409  -0.002706650
C        0.764726742   0.761322860  -0.001897248
C        0.844838119   0.681805207  -0.000650667
C        0.089862138   0.933286090   0.000540821
C        0.337284354   0.933281101   0.000744709
C        0.583833811   0.925768807  -0.000718039
C        0.835782262   0.925749778  -0.000808378
O        0.617337067   0.772192688   0.209569270
O        0.531243238   0.628819769   0.223013585
H        0.909919251   0.685773006   0.206958287
K_POINTS automatic 
  16 16 1   0 0 0 

