 &CONTROL
                 calculation = 'nscf' ,
                      outdir = './tmp/' ,
                  pseudo_dir = '/home/deleted/pseudo_psl' ,
                      prefix = 'GI_op' ,
                   verbosity = 'high' ,
               etot_conv_thr = 1.0D-5 ,
               forc_conv_thr = 4.0D-4 ,
                       nstep = 1000 ,
                    dipfield = .true. ,
 /
 &SYSTEM
                       ibrav = 4,
                           A = 9.88 ,
                           C = 15 ,
                         nat = 32,
                        ntyp = 3,
                     ecutwfc = 40.424239707 ,
                     ecutrho = 404.24239707 ,
                 occupations = 'tetrahedra' ,
                     degauss = 0.01 ,
				   input_dft = 'vdW-DF' ,
 /
 &ELECTRONS
            electron_maxstep = 50001,
                    conv_thr = 1.0D-6 ,
                 mixing_mode = 'local-TF' ,
                 mixing_beta = 0.5 ,
 /
ATOMIC_SPECIES
    C   12.01100  C.revpbe-n-kjpaw_psl.0.1.UPF 
    I  126.90400  I.revpbe-n-kjpaw_psl.0.2.UPF 
    O   15.99940  O.revpbe-n-kjpaw_psl.0.1.UPF 
ATOMIC_POSITIONS crystal 
C        0.002633126   0.002687756  -0.004682122
C        0.249272115  -0.006331078  -0.002707920
C        0.504252973   0.003589607   0.000543902
C        0.757770408   0.013580814  -0.000276083
C        0.008292484   0.257164700  -0.007957912
C        0.088097420   0.169957686  -0.007059607
C        0.255782716   0.248689613  -0.008089660
C        0.330569737   0.157008213  -0.006407481
C        0.495946741   0.248006522  -0.007046852
C        0.585144634   0.170302405  -0.005458192
C        0.751684401   0.257488491  -0.006203860
C        0.840014504   0.177582846  -0.005984076
C        0.002853943   0.503181882  -0.005284265
C        0.095187362   0.422296567  -0.007135864
C        0.272852441   0.502910583  -0.004107313
C        0.354164518   0.410581680  -0.007309508
C        0.560336131   0.410786908  -0.007062790
C        0.731657746   0.501785372  -0.005414796
C        0.828533826   0.422737592  -0.006164411
C       -0.005846148   0.748888190  -0.002188414
C        0.085390888   0.667618274  -0.002492250
C        0.257448545   0.747268929   0.001556312
C        0.348456791   0.667300723   0.005423111
C        0.521660690   0.762800072   0.032915039
I        0.487353385   0.573837993   0.208966249
C        0.743264282   0.760947324  -0.001455514
C        0.819944480   0.670827931  -0.002360906
C        0.080671334   0.913887024  -0.003059702
C        0.336692597   0.914383489   0.001534505
C        0.594183654   0.928872279   0.007135974
C        0.835551367   0.923376636  -0.002036672
O        0.542282191   0.772906227   0.125704685
K_POINTS automatic 
  20 20 1   0 0 0 

