 &CONTROL
                 calculation = 'nscf' ,
                      outdir = './tmp/' ,
                  pseudo_dir = '/home/deleted/pseudo_psl' ,
                      prefix = 'GF_ip' ,
                   verbosity = 'high' ,
               etot_conv_thr = 1.0D-5 ,
               forc_conv_thr = 4.0D-4 ,
                       nstep = 1000 ,
                    dipfield = .true. ,
 /
 &SYSTEM
                       ibrav = 4,
                           A = 9.88 ,
                           C = 15 ,
                         nat = 34,
                        ntyp = 4,
                     ecutwfc = 40.424239707 ,
                     ecutrho = 404.24239707 ,
                 occupations = 'tetrahedra' ,
                     degauss = 0.01 ,
				   input_dft = 'vdW-DF' ,
    nspin = 2 ,
    starting_magnetization(1) = 0.5,
    starting_magnetization(2) = 0.5,
    starting_magnetization(3) = -0.15,
 /
 &ELECTRONS
            electron_maxstep = 50001,
                    conv_thr = 1.0D-6 ,
                 mixing_mode = 'local-TF' ,
                 mixing_beta = 0.5 ,
 /
ATOMIC_SPECIES
    C   12.01100  C.revpbe-n-kjpaw_psl.0.1.UPF 
    F   18.99800  F.revpbe-n-kjpaw_psl.0.1.UPF 
    O   15.99940  O.revpbe-n-kjpaw_psl.0.1.UPF 
    H   1.008000  H.revpbe-kjpaw_psl.0.1.UPF
ATOMIC_POSITIONS (crystal)
C       -0.041927338  -0.046197864   0.014097322
C        0.207625247  -0.047506545   0.016333680
C        0.459163658  -0.041790312   0.017151295
C        0.708355036  -0.040707321   0.009232964
C       -0.041128598   0.209535808   0.010594289
C        0.041762794   0.123904357   0.041395900
C        0.214760414   0.207698842   0.017422535
C        0.289702361   0.116599422   0.014405489
C        0.454461080   0.204842789   0.007426579
C        0.540769377   0.123945401   0.007402925
C        0.706926652   0.208917732   0.003399618
C        0.793323661   0.127141886   0.005882025
C       -0.042994756   0.456196585   0.001750010
C        0.045444213   0.373385375   0.005997713
C        0.221172752   0.457794156   0.014013291
C        0.304032999   0.366227498   0.011157836
C        0.525074769   0.368074830   0.001433749
C        0.693080829   0.456011259  -0.006065836
C        0.786145670   0.374450379  -0.000788510
C       -0.043976409   0.705122392   0.002392456
C        0.041022605   0.622060689   0.006344382
C        0.206962842   0.702679110   0.016812094
C        0.291766612   0.620381770   0.024808983
C        0.457366219   0.713528534   0.054540496
F        0.584140338   0.654610420  -0.071185837
C        0.725609672   0.720431223  -0.028543316
C        0.789779260   0.625275799  -0.012288994
C        0.039263707   0.870408581   0.010757241
C        0.291679617   0.871096278   0.018987859
C        0.546601383   0.879447971   0.023277664
C        0.796643420   0.877782792  -0.002211649
O        0.513447759   0.660031040   0.108103200
O        1.031026635   1.115229490   0.141189883
H        1.097416684   1.221256656   0.163771876
K_POINTS automatic 
  20 20 1   0 0 0 

