 &CONTROL
                 calculation = 'scf' ,
                      outdir = './tmp/' ,
                  pseudo_dir = '/home/deleted/pseudo_psl' ,
                      prefix = 'GF_op' ,
                   verbosity = 'high' ,
               etot_conv_thr = 1.0D-5 ,
               forc_conv_thr = 4.0D-4 ,
                       nstep = 1000 ,
                    dipfield = .true. ,
 /
 &SYSTEM
                       ibrav = 4,
                           A = 9.88 ,
                           C = 15 ,
                         nat = 34,
                        ntyp = 4,
                     ecutwfc = 40.424239707 ,
                     ecutrho = 404.24239707 ,
                 occupations = 'smearing' ,
                     degauss = 0.01 ,
				   input_dft = 'vdW-DF' ,
 /
 &ELECTRONS
            electron_maxstep = 50001,
                    conv_thr = 1.0D-6 ,
                 mixing_mode = 'local-TF' ,
                 mixing_beta = 0.5 ,
 /
ATOMIC_SPECIES
    C   12.01100  C.revpbe-n-kjpaw_psl.0.1.UPF 
    F   18.99800  F.revpbe-n-kjpaw_psl.0.1.UPF 
    O   15.99940  O.revpbe-n-kjpaw_psl.0.1.UPF 
	H   1.00800   H.revpbe-kjpaw_psl.0.1.UPF
ATOMIC_POSITIONS crystal 
C       -0.004257753  -0.013151904  -0.013065329
C        0.259051137   0.005987743  -0.014810228
C        0.506044837   0.008679608  -0.004945699
C        0.748504967  -0.011357126  -0.003686687
C        0.000575650   0.243154082   0.003903720
C        0.080771935   0.155083477   0.002260016
C        0.246683197   0.241786998   0.010682945
C        0.340937077   0.175386081  -0.009704200
C        0.510892200   0.269394390  -0.019850227
C        0.590408368   0.177265020  -0.016816144
C        0.756722211   0.246727888  -0.015996031
C        0.834995294   0.157606598  -0.007842873
C        0.012496201   0.495730901  -0.008678067
C        0.084230993   0.409416978   0.013006103
C        0.241341769   0.495883621   0.059609701
C        0.316822420   0.390839965   0.064803291
C        0.613792309   0.441145117  -0.029331136
C        0.773250928   0.498663232  -0.031139579
C        0.848294830   0.411249239  -0.022351187
C        0.018622432   0.750762461  -0.021487063
C        0.097723893   0.666019965  -0.010836742
C        0.261299518   0.752090360   0.000621794
C        0.339395528   0.670989725   0.032148651
C        0.495867261   0.768287121   0.048113404
F        0.574925998   0.724315927   0.104875751
C        0.754016737   0.721702499  -0.027315819
C        0.855567238   0.664021038  -0.029544233
C        0.091903578   0.916784272  -0.017354754
C        0.340831319   0.920752921  -0.007968471
C        0.585083835   0.922806730   0.011759195
C        0.822779709   0.894150065  -0.014996053
O        0.595392351   0.579439659  -0.031396385
O        0.412660072   0.411654329   0.122821827
H        0.211700646   0.498995197   0.130765590
K_POINTS automatic 
  16 16 1   0 0 0 
