 &CONTROL
                 calculation = 'scf' ,
                      outdir = './tmp/' ,
                  pseudo_dir = '/home/deleted/pseudo_psl' ,
                      prefix = 'GI_ip' ,
                   verbosity = 'high' ,
               etot_conv_thr = 1.0D-5 ,
               forc_conv_thr = 4.0D-4 ,
                       nstep = 1000 ,
                    dipfield = .true. ,
 /
 &SYSTEM
                       ibrav = 4,
                           A = 9.88 ,
                           C = 15 ,
                         nat = 32,
                        ntyp = 3,
                     ecutwfc = 40.424239707 ,
                     ecutrho = 404.24239707 ,
                 occupations = 'smearing' ,
                     degauss = 0.01 ,
				   input_dft = 'vdW-DF' ,
 /
 &ELECTRONS
            electron_maxstep = 50001,
                    conv_thr = 1.0D-6 ,
                 mixing_mode = 'local-TF' ,
                 mixing_beta = 0.5 ,
 /
ATOMIC_SPECIES
    C   12.01100  C.revpbe-n-kjpaw_psl.0.1.UPF 
    I  126.90400  I.revpbe-n-kjpaw_psl.0.2.UPF 
    O   15.99940  O.revpbe-n-kjpaw_psl.0.1.UPF 
ATOMIC_POSITIONS crystal 
C       -0.001073809  -0.000554529  -0.002328702
C        0.253391758   0.005847214   0.000229404
C        0.500815031   0.003690911   0.009871701
C        0.746335776  -0.003630517   0.004575453
C       -0.002977978   0.248391680   0.008074750
C        0.080427411   0.165940056   0.003881979
C        0.246878410   0.251528389  -0.007086737
C        0.334912028   0.171984542  -0.011515797
C        0.502741813   0.255684409  -0.015775912
C        0.584229588   0.169995305  -0.002173293
C        0.749903519   0.250161745   0.003083554
C        0.830542800   0.163526588   0.005445088
C        0.000034578   0.501455477   0.013381285
C        0.078420874   0.415021212   0.016896065
C        0.244555531   0.500497508   0.016600483
C        0.313167244   0.414301625  -0.012217651
C        0.598602312   0.419484276  -0.026546164
C        0.758375082   0.501260953  -0.015987767
C        0.836049426   0.416969025   0.002168707
C        0.005962389   0.754016269   0.000356061
C        0.085183028   0.668795474   0.010781025
C        0.250535289   0.753556536   0.017131975
C        0.329521554   0.668412553   0.027894230
C        0.494206196   0.758300290   0.056997990
I        0.525262969   0.576130543  -0.082256857
C        0.767636637   0.754071518  -0.033562481
C        0.843520493   0.671169422  -0.017370189
C        0.085954117   0.920062614  -0.000961528
C        0.333998348   0.921438290   0.011147141
C        0.582425286   0.920207753   0.020477688
C        0.831663121   0.913563662  -0.010767067
O        0.554578732   0.705966666   0.109555568
K_POINTS automatic 
  16 16 1   0 0 0 

