 &CONTROL
                 calculation = 'nscf' ,
                      outdir = './tmp/' ,
                  pseudo_dir = '/home/deleted/pseudo_psl' ,
                      prefix = 'PG_tc' ,
                    dipfield = .true. ,
                   verbosity = 'high',
                       nstep = 1000,
               forc_conv_thr = 4.0D-4,
               etot_conv_thr = 1.0D-5
 /
 &SYSTEM
                       ibrav = 4,
                           A = 9.88 ,
                           C = 15 ,
                         nat = 34,
                        ntyp = 2,
                     ecutwfc = 40.424239707 ,
                     ecutrho = 404.24239707 ,
                 occupations = 'tetrahedra' ,
                     degauss = 0.01 ,
				   input_dft = 'vdW-DF' ,
    nspin = 2 ,
    starting_magnetization(1) = 0.5,
	starting_magnetization(2) = 0.5,
 /
 &ELECTRONS
            electron_maxstep = 50001,
                    conv_thr = 1.0D-6 ,
                 mixing_mode = 'local-TF' ,
                 mixing_beta = 0.5 ,
 /
ATOMIC_SPECIES
    C   12.01100  C.revpbe-n-kjpaw_psl.0.1.UPF 
    O   15.99940  O.revpbe-n-kjpaw_psl.0.1.UPF 
ATOMIC_POSITIONS crystal 
C       -0.000011057  -0.000005529  -0.008947890
C        0.250005529  -0.000005529  -0.008947890
C        0.500004051  -0.000024665  -0.009303821
C        0.749971284  -0.000024665  -0.009303821
C        0.000000118   0.249999882  -0.008868684
C        0.083332589   0.166667411  -0.008908725
C        0.250005529   0.250011057  -0.008947890
C        0.333334822   0.166667411  -0.008908725
C        0.499999765   0.249999882  -0.008868684
C        0.583326262   0.166647612  -0.008943826
C        0.749996048   0.249992096  -0.008860853
C        0.833321349   0.166647612  -0.008943826
C        0.000007904   0.500003952  -0.008860853
C        0.083352388   0.416678651  -0.008943826
C        0.250024665   0.500028716  -0.009303821
C        0.333341757   0.416683515  -0.009191727
C        0.500004051   0.500028716  -0.009303821
C        0.583326262   0.416678651  -0.008943826
C        0.749996048   0.500003952  -0.008860853
C        0.833333333   0.416666667  -0.008779336
C        0.000000118   0.750000235  -0.008868684
C        0.083352388   0.666673738  -0.008943826
C        0.250024665   0.749995949  -0.009303821
C        0.333380115   0.666690058  -0.009754764
C        0.500000000   0.750000000  -0.010203199
C        0.583309942   0.666690058  -0.009754764
C        0.749971284   0.749995949  -0.009303821
C        0.833321349   0.666673738  -0.008943826
C        0.083332589   0.916665178  -0.008908725
C        0.333341757   0.916658243  -0.009191727
C        0.583309942   0.916619885  -0.009754764
C        0.833316485   0.916658243  -0.009191727
O        0.500000000   0.750000000   0.204671724
O        0.500000000   0.750000000   0.287394623
K_POINTS automatic 
  20 20 1   0 0 0 

