 &CONTROL
                 calculation = 'bands' ,
                      outdir = './tmp/' ,
                  pseudo_dir = '/home/deleted/pseudo_psl' ,
                      prefix = 'GBr_ip' ,
                   verbosity = 'high' ,
               etot_conv_thr = 1.0D-5 ,
               forc_conv_thr = 4.0D-4 ,
                       nstep = 1000 ,
                    dipfield = .true. ,
 /
 &SYSTEM
                       ibrav = 4,
                           A = 9.88 ,
                           C = 15 ,
                         nat = 34,
                        ntyp = 4,
                     ecutwfc = 40.424239707 ,
                     ecutrho = 404.24239707 ,
                 occupations = 'tetrahedra' ,
                     degauss = 0.01 ,
				   input_dft = 'vdW-DF' ,
    nspin = 2 ,
    starting_magnetization(1) = 0.5,
    starting_magnetization(2) = 0.5,
    starting_magnetization(3) = 0.5,
 /
 &ELECTRONS
            electron_maxstep = 50001,
                    conv_thr = 1.0D-6 ,
                 mixing_mode = 'local-TF' ,
                 mixing_beta = 0.5 ,
 /
ATOMIC_SPECIES
    C   12.01100  C.revpbe-n-kjpaw_psl.0.1.UPF 
   Br   79.90350  Br.revpbe-n-kjpaw_psl.0.2.UPF 
    O   15.99940  O.revpbe-n-kjpaw_psl.0.1.UPF 
    H   1.008000  H.revpbe-kjpaw_psl.0.1.UPF
ATOMIC_POSITIONS (crystal)
C       -0.000785725   0.015879070   0.000865409
C        0.251839749   0.022737269   0.004081310
C        0.497591927   0.015833790   0.000587210
C        0.745718369   0.010524585  -0.005834309
C       -0.004550991   0.262893307   0.005795959
C        0.081236198   0.183147483   0.000431754
C        0.249045706   0.270343240  -0.007613727
C        0.334717220   0.188478870  -0.005873647
C        0.502221040   0.270298987  -0.007151996
C        0.582829213   0.183091276   0.000730064
C        0.748373921   0.262866737   0.006093216
C        0.828611154   0.176286368   0.003854970
C       -0.001794839   0.515437123   0.016882057
C        0.076095617   0.429578359   0.010866379
C        0.238942738   0.514540710  -0.000996975
C        0.315587101   0.433600648  -0.015772570
C        0.598942396   0.433636578  -0.014833973
C        0.756398986   0.514489498   0.000234836
C        0.834390928   0.429506391   0.011497239
C        0.004331802   0.769441652   0.011923063
C        0.082256299   0.683516346   0.017038225
C        0.246013980   0.769404619   0.011114184
C        0.323912030   0.684414635  -0.000799005
C        0.481548319   0.765308544  -0.015340826
Br       0.540383763   0.599509778  -0.041359811
C        0.764496842   0.765190596  -0.013897714
C        0.841269787   0.684367303   0.000687472
C        0.084988595   0.936113436   0.006448448
C        0.332056774   0.936095180   0.006072192
C        0.578216759   0.928659381  -0.007424376
C        0.831364667   0.928675109  -0.006853684
O        0.520478600   0.609874525   0.163764377
O        0.598084409   0.534684269   0.199049829
H        0.627452223   0.579385069   0.259142063
K_POINTS automatic 
  20 20 1   0 0 0 

