 &CONTROL
                 calculation = 'scf' ,
                      outdir = './tmp_subs/' ,
                  pseudo_dir = '/home/deleted/pseudo_psl' ,
                      prefix = 'GCl_op-subs' ,
                   verbosity = 'high' ,
               etot_conv_thr = 1.0D-5 ,
               forc_conv_thr = 4.0D-4 ,
                       nstep = 1000 ,
                    dipfield = .true. ,
 /
 &SYSTEM
                       ibrav = 4,
                           A = 9.88 ,
                           C = 15 ,
                         nat = 31,
                        ntyp = 2,
                     ecutwfc = 40.424239707 ,
                     ecutrho = 404.24239707 ,
                 occupations = 'smearing' ,
                     degauss = 0.01 ,
				   input_dft = 'vdW-DF' ,
    nspin = 2 ,
    starting_magnetization(1) = 0.5,
    starting_magnetization(2) = 0.5,
 /
 &ELECTRONS
            electron_maxstep = 50001,
                    conv_thr = 1.0D-6 ,
                 mixing_mode = 'local-TF' ,
                 mixing_beta = 0.5 ,
 /
ATOMIC_SPECIES
    C   12.01100  C.revpbe-n-kjpaw_psl.0.1.UPF 
   Cl   35.45200  Cl.revpbe-n-kjpaw_psl.0.3.0.UPF 
ATOMIC_POSITIONS (crystal)
C       -0.023737567  -0.002184974  -0.003997288
C        0.220473555  -0.011084171  -0.003486100
C        0.473659412  -0.002263533  -0.002277233
C        0.728740003   0.005105453  -0.002592047
C       -0.020670252   0.249974527  -0.002318746
C        0.060153030   0.164097797  -0.003049423
C        0.226785631   0.242278783  -0.002761122
C        0.301872614   0.151597557  -0.002955382
C        0.467662717   0.242256371  -0.002286117
C        0.556142369   0.164100846  -0.002116366
C        0.722880222   0.249941019  -0.001936077
C        0.810825208   0.169344718  -0.002191710
C       -0.025586554   0.496615593  -0.002301369
C        0.066675692   0.415187070  -0.002052857
C        0.242389801   0.495169560  -0.002082323
C        0.324007472   0.404254052  -0.002260687
C        0.532546027   0.404279543  -0.002241678
C        0.704986566   0.495144809  -0.002513481
C        0.800713832   0.415091193  -0.002123604
C       -0.031741983   0.742713301  -0.003969077
C        0.056615104   0.661198453  -0.003061171
C        0.226586483   0.742802337  -0.002579732
C        0.316970038   0.663360051  -0.002043635
C        0.482534601   0.756988942  -0.002041139
Cl       0.849453237   0.807879463   0.228712266
C        0.726803563   0.756931865  -0.003235621
C        0.798649006   0.663310297  -0.003590581
C        0.053570426   0.908635153  -0.004142074
C        0.307133952   0.908603482  -0.002737031
C        0.561779337   0.920189877  -0.002243198
C        0.810771316   0.920284111  -0.003500827
K_POINTS automatic 
  16 16 1   0 0 0 

