 &CONTROL
                 calculation = 'scf' ,
                      outdir = './tmp/' ,
                  pseudo_dir = '/home/deleted/pseudo_psl' ,
                      prefix = 'GF_ip' ,
                   verbosity = 'high' ,
               etot_conv_thr = 1.0D-5 ,
               forc_conv_thr = 4.0D-4 ,
                       nstep = 1000 ,
                    dipfield = .true. ,
 /
 &SYSTEM
                       ibrav = 4,
                           A = 9.88 ,
                           C = 15 ,
                         nat = 34,
                        ntyp = 4,
                     ecutwfc = 40.424239707 ,
                     ecutrho = 404.24239707 ,
                 occupations = 'smearing' ,
                     degauss = 0.01 ,
				   input_dft = 'vdW-DF' ,
    nspin = 2 ,
    starting_magnetization(1) = 0.5,
    starting_magnetization(2) = 0.5,
    starting_magnetization(3) = 0.5,
 /
 &ELECTRONS
            electron_maxstep = 50001,
                    conv_thr = 1.0D-6 ,
                 mixing_mode = 'local-TF' ,
                 mixing_beta = 0.5 ,
 /
ATOMIC_SPECIES
    C   12.01100  C.revpbe-n-kjpaw_psl.0.1.UPF 
    F   18.99800  F.revpbe-n-kjpaw_psl.0.1.UPF 
    O   15.99940  O.revpbe-n-kjpaw_psl.0.1.UPF 
    H   1.008000  H.revpbe-kjpaw_psl.0.1.UPF
ATOMIC_POSITIONS (crystal)
C        0.006222990   0.001275213   0.003357896
C        0.250119810  -0.006949211   0.005965435
C        0.502213911   0.001252051   0.002432759
C        0.757154683   0.007049111  -0.003399236
C        0.007252375   0.251927886   0.002237528
C        0.089288523   0.167431966   0.004346186
C        0.256146101   0.245965400   0.005642843
C        0.331480250   0.155759365   0.006476576
C        0.497052196   0.245939170   0.005352124
C        0.585335904   0.167391141   0.003765711
C        0.751880870   0.251883108   0.001906566
C        0.839156272   0.171054741  -0.000068795
C        0.002940541   0.498547693   0.002169463
C        0.093972770   0.417147438   0.002241691
C        0.268563534   0.496604189   0.001581302
C        0.351329843   0.408069245   0.003642085
C        0.563872894   0.408029862   0.003580057
C        0.735348252   0.496538442   0.001606283
C        0.830484244   0.417094735   0.002101038
C       -0.000254072   0.745969848   0.003351823
C        0.085359624   0.663458585   0.003507880
C        0.253558650   0.746067031   0.002933510
C        0.341739098   0.664441959  -0.000907386
C        0.500668109   0.764305501  -0.006729407
F        0.594805304   0.682377136  -0.027482088
C        0.770330256   0.764082508  -0.004738123
C        0.829899256   0.664325929  -0.000243090
C        0.083420263   0.912082533   0.004698998
C        0.335913433   0.912066611   0.004126972
C        0.590557568   0.923638661  -0.003820978
C        0.840171611   0.923703985  -0.002833464
O        0.702374272   0.923473008   0.183124972
O        0.621554051   0.758772110   0.170646023
H        0.688455343   0.726476529   0.201542968
K_POINTS automatic 
  16 16 1   0 0 0 

