 &CONTROL
                 calculation = 'nscf' ,
                      outdir = './tmp/' ,
                  pseudo_dir = '/home/deleted/pseudo_psl' ,
                      prefix = 'GI_op' ,
                   verbosity = 'high' ,
               etot_conv_thr = 1.0D-5 ,
               forc_conv_thr = 4.0D-4 ,
                       nstep = 1000 ,
                    dipfield = .true. ,
 /
 &SYSTEM
                       ibrav = 4,
                           A = 9.88 ,
                           C = 15 ,
                         nat = 34,
                        ntyp = 4,
                     ecutwfc = 40.424239707 ,
                     ecutrho = 404.24239707 ,
                 occupations = 'tetrahedra' ,
                     degauss = 0.01 ,
				   input_dft = 'vdW-DF' ,
 /
 &ELECTRONS
            electron_maxstep = 50001,
                    conv_thr = 1.0D-6 ,
                 mixing_mode = 'local-TF' ,
                 mixing_beta = 0.5 ,
 /
ATOMIC_SPECIES
    C   12.01100  C.revpbe-n-kjpaw_psl.0.1.UPF 
    I  126.90400  I.revpbe-n-kjpaw_psl.0.2.UPF 
    O   15.99940  O.revpbe-n-kjpaw_psl.0.1.UPF 
    H   1.008000  H.revpbe-kjpaw_psl.0.1.UPF
ATOMIC_POSITIONS crystal 
C       -0.002128888  -0.000007447  -0.002444705
C        0.244105653  -0.010358510  -0.002089264
C        0.500692053  -0.000044246  -0.002241142
C        0.757098494   0.015572163  -0.002579764
C        0.007223446   0.256823086  -0.002894640
C        0.084419369   0.167370467  -0.002637047
C        0.251364257   0.244017162  -0.002771640
C        0.325141339   0.151732024  -0.002272495
C        0.491208350   0.243964480  -0.002431364
C        0.581520413   0.167315932  -0.002302134
C        0.748197059   0.256791878  -0.002632325
C        0.838146017   0.177666430  -0.002636205
C        0.000411528   0.502224489  -0.003139884
C        0.095877741   0.421567583  -0.003286943
C        0.273202850   0.499230706  -0.003721605
C        0.351596786   0.406007115  -0.003394635
C        0.552895112   0.405985386  -0.002964897
C        0.724597739   0.499207474  -0.003186946
C        0.824288244   0.421541966  -0.002985658
C       -0.013642049   0.745717765  -0.002812711
C        0.081780904   0.665021978  -0.002982639
C        0.257927783   0.745706647  -0.002976986
C        0.357505989   0.668033789  -0.003642420
C        0.529264966   0.761360937  -0.003320677
I        0.679965663   0.697153367   0.262539989
C        0.730698717   0.761361187  -0.003439102
C        0.809063614   0.668087708  -0.003346904
C        0.075022200   0.910493160  -0.002313891
C        0.334035869   0.910487644  -0.002290108
C        0.591042175   0.923344232  -0.002608116
C        0.830930396   0.923355260  -0.002871649
O        0.469680818   0.644624664   0.194110723
O        0.333535411   0.505247117   0.227357683
H        0.295219977   0.548823607   0.273196535
K_POINTS automatic 
  20 20 1   0 0 0 

