 &CONTROL
                 calculation = 'relax' ,
                      outdir = './tmp/' ,
                  pseudo_dir = '/home/deleted/pseudo_psl' ,
                      prefix = 'GCl_ip' ,
                   verbosity = 'high' ,
               etot_conv_thr = 1.0D-5 ,
               forc_conv_thr = 4.0D-4 ,
                       nstep = 1000 ,
                    dipfield = .true. ,
 /
 &SYSTEM
                       ibrav = 4,
                           A = 9.88 ,
                           C = 15 ,
                         nat = 33,
                        ntyp = 3,
                     ecutwfc = 40.424239707 ,
                     ecutrho = 404.24239707 ,
                 occupations = 'smearing' ,
                     degauss = 0.01 ,
				   input_dft = 'vdW-DF' ,
 /
 &ELECTRONS
            electron_maxstep = 50001,
                    conv_thr = 1.0D-6 ,
                 mixing_mode = 'local-TF' ,
                 mixing_beta = 0.5 ,
 /
 &IONS
                ion_dynamics = 'bfgs' ,
 /
ATOMIC_SPECIES
    C   12.01100  C.revpbe-n-kjpaw_psl.0.1.UPF 
   Cl   35.45200  Cl.revpbe-n-kjpaw_psl.0.3.0.UPF 
    O   15.99940  O.revpbe-n-kjpaw_psl.0.1.UPF 
ATOMIC_POSITIONS crystal 
C       -0.005621656   0.000192279   0.009979252
C        0.239606445  -0.006787432   0.016814886
C        0.491651318   0.001395086   0.004659897
C        0.744614215   0.003525919  -0.003324358
C       -0.004550660   0.250308454   0.008762355
C        0.077390357   0.166126352   0.014567202
C        0.244774552   0.246162229   0.016876979
C        0.321572606   0.157393061   0.017126816
C        0.487709273   0.247013808   0.012668718
C        0.574916118   0.166919510   0.006950280
C        0.739971621   0.250271543   0.005767010
C        0.827519604   0.168811501   0.003291367
C       -0.008149496   0.497692800   0.009975188
C        0.081902970   0.416073454   0.010835704
C        0.256914630   0.498362666   0.013929515
C        0.336241139   0.408697665   0.014619224
C        0.558846574   0.409087422   0.010969136
C        0.728215379   0.497519782   0.003870843
C        0.820576791   0.416166597   0.006708861
C       -0.010165096   0.746032219   0.010034317
C        0.075000449   0.664123395   0.012627975
C        0.242083691   0.745706545   0.011679210
C        0.331818559   0.667084365   0.014811779
C        0.493103135   0.764059779   0.023222354
Cl       0.598219098   0.673748014  -0.098503281
C        0.757465342   0.760237580  -0.023879225
C        0.823472626   0.666237282  -0.002533505
C        0.073945534   0.912431464   0.013345574
C        0.324581402   0.912399772   0.012739974
C        0.576993900   0.924041688   0.000920288
C        0.831774061   0.922431100  -0.007826136
O        0.573870933   0.710565265   0.090338704
O        0.612039316   0.821302073   0.157973101
K_POINTS automatic 
  4 4 1   0 0 0 

