 &CONTROL
                 calculation = 'nscf' ,
                      outdir = './tmp/' ,
                  pseudo_dir = '/home/deleted/pseudo_psl' ,
                      prefix = 'GF_ip' ,
                   verbosity = 'high' ,
               etot_conv_thr = 1.0D-5 ,
               forc_conv_thr = 4.0D-4 ,
                       nstep = 1000 ,
                    dipfield = .true. ,
 /
 &SYSTEM
                       ibrav = 4,
                           A = 9.88 ,
                           C = 15 ,
                         nat = 33,
                        ntyp = 3,
                     ecutwfc = 40.424239707 ,
                     ecutrho = 404.24239707 ,
                 occupations = 'tetrahedra' ,
                     degauss = 0.01 ,
				   input_dft = 'vdW-DF' ,
    nspin = 2 ,
    starting_magnetization(1) = 0.5,
    starting_magnetization(2) = 0.5,
    starting_magnetization(3) = 0.5,
 /
 &ELECTRONS
            electron_maxstep = 50001,
                    conv_thr = 1.0D-6 ,
                 mixing_mode = 'local-TF' ,
                 mixing_beta = 0.5 ,
 /
ATOMIC_SPECIES
    C   12.01100  C.revpbe-n-kjpaw_psl.0.1.UPF 
    F   18.99800  F.revpbe-n-kjpaw_psl.0.1.UPF 
    O   15.99940  O.revpbe-n-kjpaw_psl.0.1.UPF 
ATOMIC_POSITIONS (crystal)
C        0.002771606   0.006734064  -0.007624741
C        0.253537481   0.008319174  -0.001599863
C        0.503889036   0.009608503   0.003276848
C        0.750781937   0.006429833  -0.004997726
C        0.002527046   0.257289772   0.002297048
C        0.085529130   0.172667949   0.003756924
C        0.249750788   0.253390516   0.014260189
C        0.335400850   0.175444552   0.001554367
C        0.503732358   0.259648677  -0.009407279
C        0.587131220   0.175336070  -0.007370675
C        0.753288785   0.258192110  -0.008655802
C        0.836734269   0.174155013  -0.005522870
C        0.003820577   0.508011469  -0.002956224
C        0.086212477   0.425058940   0.008945003
C        0.248653518   0.509321350   0.032903089
C        0.318089475   0.409855127   0.059008781
C        0.591432608   0.418443409  -0.024920446
C        0.752745803   0.506515659  -0.025071506
C        0.837615496   0.424351020  -0.012884597
C        0.004311823   0.758324487  -0.012230308
C        0.086847377   0.674683860  -0.001632070
C        0.251881855   0.757661438   0.010956071
C        0.330600853   0.673733964   0.033724093
C        0.500988218   0.772733591   0.056643450
F        0.615630538   0.689720746  -0.068137570
C        0.766361607   0.764844317  -0.037715698
C        0.839827369   0.676032014  -0.027916293
C        0.086443031   0.924365296  -0.007249894
C        0.336194088   0.925290610   0.004826584
C        0.587449316   0.928845706   0.010820507
C        0.836579934   0.924245776  -0.016693262
O        0.404437884   0.437229882   0.123767226
O        0.567932020   0.742870348   0.115846643
K_POINTS automatic 
  20 20 1   0 0 0 

