 &CONTROL
                 calculation = 'relax' ,
                      outdir = './tmp/' ,
                  pseudo_dir = '/home/deleted/pseudo_psl' ,
                      prefix = 'GCl_ip' ,
                   verbosity = 'high' ,
               etot_conv_thr = 1.0D-5 ,
               forc_conv_thr = 4.0D-4 ,
                       nstep = 1000 ,
                    dipfield = .true. ,
 /
 &SYSTEM
                       ibrav = 4,
                           A = 9.88 ,
                           C = 15 ,
                         nat = 34,
                        ntyp = 4,
                     ecutwfc = 40.424239707 ,
                     ecutrho = 404.24239707 ,
                 occupations = 'smearing' ,
                     degauss = 0.01 ,
				   input_dft = 'vdW-DF' ,
 /
 &ELECTRONS
            electron_maxstep = 50001,
                    conv_thr = 1.0D-6 ,
                 mixing_mode = 'local-TF' ,
                 mixing_beta = 0.5 ,
 /
 &IONS
                ion_dynamics = 'bfgs' ,
 /
ATOMIC_SPECIES
    C   12.01100  C.revpbe-n-kjpaw_psl.0.1.UPF 
   Cl   35.45200  Cl.revpbe-n-kjpaw_psl.0.3.0.UPF 
    O   15.99940  O.revpbe-n-kjpaw_psl.0.1.UPF 
    H   1.008000  H.revpbe-kjpaw_psl.0.1.UPF
ATOMIC_POSITIONS crystal 
C       -0.023735333  -0.016156360   0.000505522
C        0.223749654  -0.020890741   0.010632228
C        0.476337666  -0.015122812   0.012701119
C        0.725922990  -0.013402037  -0.002516278
C       -0.022166735   0.235684952  -0.000244405
C        0.059389611   0.151188867   0.004967972
C        0.227347495   0.232370456   0.008104455
C        0.305383360   0.143282238   0.009549186
C        0.471243127   0.232083361   0.007031755
C        0.557837155   0.151240447   0.006135443
C        0.723912253   0.235624826   0.002818712
C        0.809654574   0.153314551  -0.000692510
C       -0.025572929   0.483247522   0.003031454
C        0.063227142   0.401032639   0.004256579
C        0.237447471   0.483933228   0.012980730
C        0.318621682   0.394234643   0.009223450
C        0.542105598   0.394898032   0.001912373
C        0.711133796   0.483490165  -0.006345023
C        0.803000930   0.401564708  -0.000049995
C       -0.028199181   0.732057234   0.000963810
C        0.056694369   0.648665759   0.007313310
C        0.224434533   0.729936250   0.015666676
C        0.309058003   0.648967208   0.023249702
C        0.476957991   0.741334025   0.047344188
Cl       0.586716328   0.673512841  -0.118927950
C        0.742611747   0.746731242  -0.042294303
C        0.805642333   0.652163171  -0.016573656
C        0.056379819   0.897716598   0.003883679
C        0.308597644   0.898133416   0.015656907
C        0.563143443   0.905894889   0.014471443
C        0.812227158   0.904312712  -0.015432084
O        0.538392478   0.687264378   0.096860780
O        0.896794575   1.100355055   0.173554854
H        0.850445627   1.029029869   0.224155392
K_POINTS automatic 
  4 4 1   0 0 0 

