 &CONTROL
                 calculation = 'relax' ,
                      outdir = './tmp/' ,
                  pseudo_dir = '/home/deleted/pseudo_psl' ,
                      prefix = 'GCl_ip' ,
                   verbosity = 'high' ,
               etot_conv_thr = 1.0D-5 ,
               forc_conv_thr = 4.0D-4 ,
                       nstep = 1000 ,
                    dipfield = .true. ,
 /
 &SYSTEM
                       ibrav = 4,
                           A = 9.88 ,
                           C = 15 ,
                         nat = 34,
                        ntyp = 4,
                     ecutwfc = 40.424239707 ,
                     ecutrho = 404.24239707 ,
                 occupations = 'smearing' ,
                     degauss = 0.01 ,
				   input_dft = 'vdW-DF' ,
 /
 &ELECTRONS
            electron_maxstep = 50001,
                    conv_thr = 1.0D-6 ,
                 mixing_mode = 'local-TF' ,
                 mixing_beta = 0.5 ,
 /
 &IONS
                ion_dynamics = 'bfgs' ,
 /
ATOMIC_SPECIES
    C   12.01100  C.revpbe-n-kjpaw_psl.0.1.UPF 
   Cl   35.45200  Cl.revpbe-n-kjpaw_psl.0.3.0.UPF 
    O   15.99940  O.revpbe-n-kjpaw_psl.0.1.UPF 
    H   1.008000  H.revpbe-kjpaw_psl.0.1.UPF
ATOMIC_POSITIONS crystal 
C       -0.007999935   0.000498177   0.004811634
C        0.239323958  -0.003699584   0.011577271
C        0.491012282   0.001209497   0.016107703
C        0.742039860   0.003086233   0.006652854
C       -0.006056137   0.252183395   0.006958936
C        0.075477939   0.167449111   0.010010427
C        0.243326419   0.248857582   0.011327753
C        0.320969886   0.160017484   0.011095096
C        0.487039385   0.248902968   0.008792159
C        0.573398188   0.167667597   0.008986259
C        0.739718347   0.252252234   0.007906355
C        0.825260383   0.169359080   0.006526381
C       -0.009216442   0.500064777   0.007019542
C        0.079888920   0.418026093   0.009899647
C        0.254342370   0.500739695   0.017687660
C        0.334780229   0.411191472   0.012743717
C        0.558370007   0.411539360   0.004634120
C        0.727553129   0.500207534  -0.003465930
C        0.819234880   0.418226910   0.003929593
C       -0.011921073   0.748544268   0.002711394
C        0.073226146   0.665515267   0.008922589
C        0.241159562   0.747888315   0.016983669
C        0.326910392   0.667482112   0.028085802
C        0.488988271   0.761648772   0.052816127
Cl       0.604049081   0.691663059  -0.115674706
C        0.757189040   0.763260439  -0.037353531
C        0.821692953   0.668663728  -0.013583475
C        0.072248007   0.914474894   0.005893882
C        0.323938487   0.914884669   0.016639303
C        0.577835719   0.922085594   0.024785939
C        0.826580189   0.920527630  -0.008629293
O        0.539092668   0.691674368   0.109719770
O        0.688851619   0.779240505   0.145481358
H        0.566431642   0.822360096   0.113895511
K_POINTS automatic 
  4 4 1   0 0 0 

