 &CONTROL
                 calculation = 'scf' ,
                      outdir = './tmp/' ,
                  pseudo_dir = '/home/deleted/pseudo_psl' ,
                      prefix = 'GCl_ip' ,
                   verbosity = 'high' ,
               etot_conv_thr = 1.0D-5 ,
               forc_conv_thr = 4.0D-4 ,
                       nstep = 1000 ,
                    dipfield = .true. ,
 /
 &SYSTEM
                       ibrav = 4,
                           A = 9.88 ,
                           C = 15 ,
                         nat = 34,
                        ntyp = 4,
                     ecutwfc = 40.424239707 ,
                     ecutrho = 404.24239707 ,
                 occupations = 'smearing' ,
                     degauss = 0.01 ,
				   input_dft = 'vdW-DF' ,
 /
 &ELECTRONS
            electron_maxstep = 50001,
                    conv_thr = 1.0D-6 ,
                 mixing_mode = 'local-TF' ,
                 mixing_beta = 0.5 ,
 /
ATOMIC_SPECIES
    C   12.01100  C.revpbe-n-kjpaw_psl.0.1.UPF 
   Cl   35.45200  Cl.revpbe-n-kjpaw_psl.0.3.0.UPF 
    O   15.99940  O.revpbe-n-kjpaw_psl.0.1.UPF 
    H   1.008000  H.revpbe-kjpaw_psl.0.1.UPF
ATOMIC_POSITIONS crystal 
C       -0.037097298  -0.023257277   0.011367257
C        0.213088860  -0.024270437   0.014761544
C        0.464847447  -0.018826221   0.014391246
C        0.714318755  -0.017422686   0.003874772
C       -0.036047851   0.232872446   0.008261986
C        0.045463408   0.146522340   0.039880818
C        0.219429863   0.230649602   0.017271547
C        0.295083366   0.140168129   0.013562087
C        0.460173045   0.228466688   0.006358718
C        0.546178409   0.147116962   0.005237157
C        0.712303732   0.232231718   0.000905751
C        0.798789071   0.150438347   0.002494766
C       -0.037689163   0.479406130   0.000287794
C        0.050397379   0.396472930   0.005107741
C        0.225557756   0.480573937   0.013782016
C        0.307543930   0.389118075   0.011282386
C        0.531520316   0.391625235  -0.000070429
C        0.699244120   0.479753035  -0.009141946
C        0.791745637   0.397847267  -0.002933718
C       -0.039275303   0.728229100   0.000693904
C        0.045932752   0.645168252   0.005391662
C        0.212238358   0.725893871   0.015261012
C        0.297022695   0.643526477   0.023033453
C        0.464493563   0.735945131   0.049290754
Cl       0.579930268   0.677634834  -0.118273610
C        0.733190828   0.745376154  -0.040363625
C        0.795048026   0.649048808  -0.017438095
C        0.044710066   0.893588236   0.008690387
C        0.297282266   0.894221666   0.017003332
C        0.552652532   0.902409850   0.018874987
C        0.802729477   0.901140847  -0.008902816
O        0.523779503   0.680836033   0.099533904
O        1.030248237   1.150097308   0.139234039
H        1.079902323   1.095090545   0.165184731
K_POINTS automatic 
  16 16 1   0 0 0 

