 &CONTROL
                 calculation = 'scf' ,
                      outdir = './tmp/' ,
                  pseudo_dir = '/home/deleted/pseudo_psl' ,
                      prefix = 'GI_ip' ,
                   verbosity = 'high' ,
               etot_conv_thr = 1.0D-5 ,
               forc_conv_thr = 4.0D-4 ,
                       nstep = 1000 ,
                    dipfield = .true. ,
 /
 &SYSTEM
                       ibrav = 4,
                           A = 9.88 ,
                           C = 15 ,
                         nat = 34,
                        ntyp = 4,
                     ecutwfc = 40.424239707 ,
                     ecutrho = 404.24239707 ,
                 occupations = 'smearing' ,
                     degauss = 0.01 ,
				   input_dft = 'vdW-DF' ,
    nspin = 2 ,
    starting_magnetization(1) = 0.5,
    starting_magnetization(2) = 0.5,
    starting_magnetization(3) = 0.5,
 /
 &ELECTRONS
            electron_maxstep = 50001,
                    conv_thr = 1.0D-6 ,
                 mixing_mode = 'local-TF' ,
                 mixing_beta = 0.5 ,
 /
ATOMIC_SPECIES
    C   12.01100  C.revpbe-n-kjpaw_psl.0.1.UPF 
    I  126.90400  I.revpbe-n-kjpaw_psl.0.2.UPF 
    O   15.99940  O.revpbe-n-kjpaw_psl.0.1.UPF 
    H   1.008000  H.revpbe-kjpaw_psl.0.1.UPF
ATOMIC_POSITIONS (crystal)
C       -0.000506149  -0.000045882   0.004235447
C        0.252023497   0.006846357   0.007247457
C        0.497658767  -0.000290315   0.002923933
C        0.745827778  -0.005300221  -0.006118614
C       -0.004560480   0.246745561   0.010233535
C        0.081283184   0.167059419   0.003142779
C        0.248079953   0.253560919  -0.008531751
C        0.334548958   0.172111527  -0.005960892
C        0.502542424   0.253510490  -0.006018026
C        0.582958377   0.166803604   0.004506154
C        0.748454447   0.246576369   0.011868132
C        0.828535742   0.159899290   0.007514692
C       -0.001313718   0.499420506   0.026365526
C        0.076343912   0.413519371   0.017038058
C        0.237651849   0.498364883  -0.000233836
C        0.312701467   0.416487918  -0.019599643
C        0.600293518   0.416997919  -0.013176313
C        0.757284488   0.498302300   0.006124224
C        0.834576371   0.413262697   0.020268170
C        0.004811503   0.753638318   0.019836274
C        0.082752796   0.667489872   0.026096639
C        0.246245683   0.753374403   0.016496285
C        0.322784973   0.668658893  -0.000651750
C        0.479467015   0.750577087  -0.020620710
I        0.541724352   0.583425398  -0.062960443
C        0.767199131   0.750070739  -0.014254303
C        0.842547786   0.668737449   0.005682529
C        0.085310868   0.920249695   0.011436155
C        0.332110206   0.920053005   0.009816505
C        0.577939476   0.913271361  -0.008969415
C        0.832464230   0.913347475  -0.006512153
O        0.513825278   0.584019636   0.160821127
O        0.390703103   0.608571563   0.188311846
H        0.490573610   0.487173577   0.191861049
K_POINTS automatic 
  16 16 1   0 0 0 

