 &CONTROL
                 calculation = 'scf' ,
                      outdir = './tmp_subs/' ,
                  pseudo_dir = '/home/deleted/pseudo_psl' ,
                      prefix = 'GCl_op_subs' ,
                   verbosity = 'high' ,
               etot_conv_thr = 1.0D-5 ,
               forc_conv_thr = 4.0D-4 ,
                       nstep = 1000 ,
                    dipfield = .true. ,
 /
 &SYSTEM
                       ibrav = 4,
                           A = 9.88 ,
                           C = 15 ,
                         nat = 31,
                        ntyp = 2,
                     ecutwfc = 40.424239707 ,
                     ecutrho = 404.24239707 ,
                 occupations = 'smearing' ,
                     degauss = 0.01 ,
				   input_dft = 'vdW-DF' ,
 /
 &ELECTRONS
            electron_maxstep = 50001,
                    conv_thr = 1.0D-6 ,
                 mixing_mode = 'local-TF' ,
                 mixing_beta = 0.5 ,
 /
ATOMIC_SPECIES
    C   12.01100  C.revpbe-n-kjpaw_psl.0.1.UPF 
   Cl   35.45200  Cl.revpbe-n-kjpaw_psl.0.3.0.UPF 
ATOMIC_POSITIONS crystal 
C        0.013635427   0.024602835   0.003949751
C        0.258673975   0.017347950  -0.004637792
C        0.510967408   0.024602835   0.003949751
C        0.764797516   0.029595032   0.023369583
C        0.014677686   0.274878462   0.005040448
C        0.096864031   0.190815120   0.000128477
C        0.264037000   0.270584788  -0.004614026
C        0.340528449   0.181056899  -0.005399355
C        0.506547789   0.270584788  -0.004614026
C        0.593951088   0.190815120   0.000128477
C        0.760200777   0.274878462   0.005040448
C        0.846670353   0.193340708   0.010962450
C        0.011040788   0.522081577   0.004175021
C        0.100941510   0.440395297   0.004540547
C        0.274294068   0.521152026   0.006490748
C        0.357056733   0.432450453   0.000610200
C        0.575393718   0.432450453   0.000610200
C        0.746857958   0.521152026   0.006490748
C        0.839453786   0.440395297   0.004540547
C        0.008593869   0.770001444   0.001870487
C        0.093520929   0.687041859   0.000105239
C        0.261407574   0.770001444   0.001870487
C        0.347725738   0.688614433   0.013593049
C        0.506022326   0.785155998   0.033649211
Cl       0.602639441   0.705278883   0.096581054
C        0.779133673   0.785155998   0.033649211
C        0.840888695   0.688614433   0.013593049
C        0.092191804   0.936258752  -0.000542834
C        0.344066947   0.936258752  -0.000542834
C        0.596580065   0.946611226   0.022109167
C        0.850031160   0.946611226   0.022109167
K_POINTS automatic 
  16 16 1   0 0 0 

