 &CONTROL
                 calculation = 'bands' ,
                      outdir = './tmp/' ,
                  pseudo_dir = '/home/deleted/pseudo_psl' ,
                      prefix = 'GI_op' ,
                   verbosity = 'high' ,
               etot_conv_thr = 1.0D-5 ,
               forc_conv_thr = 4.0D-4 ,
                       nstep = 1000 ,
                    dipfield = .true. ,
 /
 &SYSTEM
                       ibrav = 4,
                           A = 9.88 ,
                           C = 15 ,
                         nat = 33,
                        ntyp = 3,
                     ecutwfc = 40.424239707 ,
                     ecutrho = 404.24239707 ,
                 occupations = 'tetrahedra' ,
                     degauss = 0.01 ,
				   input_dft = 'vdW-DF' ,
 /
 &ELECTRONS
            electron_maxstep = 50001,
                    conv_thr = 1.0D-6 ,
                 mixing_mode = 'local-TF' ,
                 mixing_beta = 0.5 ,
 /
ATOMIC_SPECIES
    C   12.01100  C.revpbe-n-kjpaw_psl.0.1.UPF 
    I  126.90400  I.revpbe-n-kjpaw_psl.0.2.UPF 
    O   15.99940  O.revpbe-n-kjpaw_psl.0.1.UPF 
ATOMIC_POSITIONS crystal 
C       -0.005447686  -0.008119396  -0.004367235
C        0.240773784  -0.018452434  -0.003372475
C        0.497328291  -0.008119396  -0.004367235
C        0.753575995   0.007151989  -0.005840142
C        0.003563547   0.248489656  -0.004140489
C        0.080915854   0.159090585  -0.003968514
C        0.247890681   0.235833738  -0.003467467
C        0.321929383   0.143858768  -0.003301776
C        0.487943057   0.235833738  -0.003467467
C        0.578174730   0.159090585  -0.003968514
C        0.744926109   0.248489656  -0.004140489
C        0.834683980   0.169367961  -0.004817207
C       -0.003087074   0.493825853  -0.003681834
C        0.092064231   0.413264002  -0.003749519
C        0.269667030   0.491095908  -0.003827971
C        0.347823784   0.397944406  -0.003600189
C        0.550120622   0.397944406  -0.003600189
C        0.721428877   0.491095908  -0.003827971
C        0.821199769   0.413264002  -0.003749519
C       -0.016596193   0.737662098  -0.003832649
C        0.078554664   0.657109328  -0.003657439
C        0.254258291   0.737662098  -0.003832649
C        0.354022496   0.659908108  -0.004267021
C        0.525269114   0.753094908  -0.005035435
I        0.572615911   0.645231822   0.247487784
C        0.727825793   0.753094908  -0.005035435
C        0.805885611   0.659908108  -0.004267021
C        0.071881122   0.902453492  -0.003720312
C        0.330572369   0.902453492  -0.003720312
C        0.587572056   0.915202555  -0.005422144
C        0.827630500   0.915202555  -0.005422144
O        0.759210133   1.018420264   0.248623373
O        0.702489834   0.904979668   0.194024270
K_POINTS crystal_b 
4
0.0000000000    0.0000000000    0.0000000000 17
0.0000000000    0.5000000000    0.0000000000 10
0.3333333333    0.3333333333    0.0000000000 20
0.0000000000    0.0000000000    0.0000000000 1

