 &CONTROL
                 calculation = 'nscf' ,
                      outdir = './tmp/' ,
                  pseudo_dir = '/home/deleted/pseudo_psl' ,
                      prefix = 'GI_ip' ,
                   verbosity = 'high' ,
               etot_conv_thr = 1.0D-5 ,
               forc_conv_thr = 4.0D-4 ,
                       nstep = 1000 ,
                    dipfield = .true. ,
 /
 &SYSTEM
                       ibrav = 4,
                           A = 9.88 ,
                           C = 15 ,
                         nat = 34,
                        ntyp = 4,
                     ecutwfc = 40.424239707 ,
                     ecutrho = 404.24239707 ,
                 occupations = 'tetrahedra' ,
                     degauss = 0.01 ,
				   input_dft = 'vdW-DF' ,
 /
 &ELECTRONS
            electron_maxstep = 50001,
                    conv_thr = 1.0D-6 ,
                 mixing_mode = 'local-TF' ,
                 mixing_beta = 0.5 ,
 /
ATOMIC_SPECIES
    C   12.01100  C.revpbe-n-kjpaw_psl.0.1.UPF 
    I  126.90400  I.revpbe-n-kjpaw_psl.0.2.UPF 
    O   15.99940  O.revpbe-n-kjpaw_psl.0.1.UPF 
    H   1.008000  H.revpbe-kjpaw_psl.0.1.UPF
ATOMIC_POSITIONS crystal 
C        0.002060124   0.001060161   0.005230308
C        0.254866076   0.008565706   0.009058487
C        0.500195418   0.001242483   0.005602289
C        0.748307591  -0.004704206  -0.003641743
C       -0.002330192   0.247370119   0.012898066
C        0.083473389   0.167717254   0.006080687
C        0.250039754   0.254514602  -0.004734416
C        0.337450409   0.173761334  -0.003995535
C        0.505656035   0.254585786  -0.006643800
C        0.585479567   0.167911195   0.004681773
C        0.750967988   0.247447826   0.011539962
C        0.830882340   0.160507340   0.009261564
C        0.000747289   0.500386251   0.025869065
C        0.078222211   0.414028415   0.019810294
C        0.240099196   0.499209604   0.005493498
C        0.315209668   0.417225877  -0.012806652
C        0.603519745   0.417086686  -0.016956264
C        0.760937918   0.499239663   0.001007305
C        0.837193995   0.414247230   0.017473506
C        0.007434242   0.754739596   0.017380114
C        0.084848481   0.668606656   0.025721934
C        0.248661551   0.754998504   0.019464170
C        0.325362569   0.669851486   0.005302984
C        0.482546944   0.751683877  -0.012714414
I        0.541782088   0.584181337  -0.055025343
C        0.770696289   0.751812989  -0.016383251
C        0.846319986   0.669860904   0.001029830
C        0.088097802   0.921621952   0.011705053
C        0.334783286   0.921684813   0.012482580
C        0.580027217   0.914406574  -0.004817367
C        0.835547069   0.914402240  -0.006039844
O        0.551246293   0.602505933   0.117606551
O        0.479295179   0.455607008   0.167511121
H        0.570809673   0.459900401   0.195575990
K_POINTS automatic 
  20 20 1   0 0 0 

