 &CONTROL
                 calculation = 'relax' ,
                      outdir = './tmp/' ,
                  pseudo_dir = '/home/deleted/pseudo_psl' ,
                      prefix = 'GCl_ip' ,
                   verbosity = 'high' ,
               etot_conv_thr = 1.0D-5 ,
               forc_conv_thr = 4.0D-4 ,
                       nstep = 1000 ,
                    dipfield = .true. ,
 /
 &SYSTEM
                       ibrav = 4,
                           A = 9.88 ,
                           C = 15 ,
                         nat = 33,
                        ntyp = 3,
                     ecutwfc = 40.424239707 ,
                     ecutrho = 404.24239707 ,
                 occupations = 'smearing' ,
                     degauss = 0.01 ,
				   input_dft = 'vdW-DF' ,
 /
 &ELECTRONS
            electron_maxstep = 50001,
                    conv_thr = 1.0D-6 ,
                 mixing_mode = 'local-TF' ,
                 mixing_beta = 0.5 ,
 /
 &IONS
                ion_dynamics = 'bfgs' ,
 /
ATOMIC_SPECIES
    C   12.01100  C.revpbe-n-kjpaw_psl.0.1.UPF 
   Cl   35.45200  Cl.revpbe-n-kjpaw_psl.0.3.0.UPF 
    O   15.99940  O.revpbe-n-kjpaw_psl.0.1.UPF 
ATOMIC_POSITIONS crystal 
C        0.008820326   0.004378727  -0.005666666
C        0.254680547  -0.001483114  -0.014421554
C        0.506691611   0.004907610  -0.007297402
C        0.760142090   0.009371104   0.011136034
C        0.010735502   0.255205752  -0.003190844
C        0.092473823   0.170785125  -0.007765237
C        0.259839960   0.250989649  -0.012000059
C        0.336551281   0.161625044  -0.015203606
C        0.502775483   0.251062751  -0.013337231
C        0.590179342   0.171143353  -0.009607679
C        0.756372134   0.255337819  -0.003780102
C        0.842437955   0.173273820   0.001728460
C        0.007439977   0.502956781  -0.005097749
C        0.096821369   0.420717897  -0.004099673
C        0.270170068   0.501633983  -0.002608261
C        0.351206293   0.412998661  -0.008246936
C        0.573339498   0.412920399  -0.008517980
C        0.743024325   0.501359241  -0.002915593
C        0.835865526   0.420718683  -0.004222096
C        0.004038406   0.750470640  -0.008330652
C        0.089457785   0.667693942  -0.010246312
C        0.257673246   0.750906535  -0.009429295
C        0.344288930   0.669994390   0.002321451
C        0.502222995   0.765368889   0.022119651
Cl       0.595433665   0.686794401   0.089480974
C        0.769869247   0.763259969   0.018229905
C        0.836194663   0.669655117   0.002435226
C        0.087548377   0.916639469  -0.010390436
C        0.340196094   0.916993751  -0.011373117
C        0.592108308   0.926353736   0.009599682
C        0.844122194   0.925379224   0.009069117
O        0.361900180   0.754089672   0.206005979
O        0.393683530   0.641830221   0.205621998
K_POINTS automatic 
  4 4 1   0 0 0 

