 &BANDS
                      prefix = 'HOH' ,
                      outdir = './tmp/' ,
                     filband = 'HOH-bands' ,
                     plot_2d = .false. ,
 /
