 &CONTROL
                 calculation = 'nscf' ,
                      outdir = './tmp/' ,
                  pseudo_dir = '/home/deleted/pseudo_psl' ,
                      prefix = 'GCl_ip' ,
                   verbosity = 'high' ,
               etot_conv_thr = 1.0D-5 ,
               forc_conv_thr = 4.0D-4 ,
                       nstep = 1000 ,
                    dipfield = .true. ,
 /
 &SYSTEM
                       ibrav = 4,
                           A = 9.88 ,
                           C = 15 ,
                         nat = 34,
                        ntyp = 4,
                     ecutwfc = 40.424239707 ,
                     ecutrho = 404.24239707 ,
                 occupations = 'tetrahedra' ,
                     degauss = 0.01 ,
				   input_dft = 'vdW-DF' ,
    nspin = 2 ,
    starting_magnetization(1) = 0.5,
    starting_magnetization(2) = 0.5,
    starting_magnetization(3) = 0.5,
 /
 &ELECTRONS
            electron_maxstep = 50001,
                    conv_thr = 1.0D-6 ,
                 mixing_mode = 'local-TF' ,
                 mixing_beta = 0.5 ,
 /
ATOMIC_SPECIES
    C   12.01100  C.revpbe-n-kjpaw_psl.0.1.UPF 
   Cl   35.45200  Cl.revpbe-n-kjpaw_psl.0.3.0.UPF 
    O   15.99940  O.revpbe-n-kjpaw_psl.0.1.UPF 
    H   1.008000  H.revpbe-kjpaw_psl.0.1.UPF
ATOMIC_POSITIONS (crystal)
C       -0.000585285  -0.004825684   0.011596788
C        0.246045756  -0.010054310   0.010004248
C        0.497864818  -0.005554760   0.003675001
C        0.750637991  -0.002598664   0.002817633
C        0.001900789   0.246066562   0.005144606
C        0.083633112   0.161651687   0.005486224
C        0.251101655   0.242754045   0.005812565
C        0.328164440   0.153840725   0.009032235
C        0.494859022   0.242939449   0.009704939
C        0.581455158   0.161477478   0.008569380
C        0.747572635   0.246128005   0.005067677
C        0.833305264   0.163274958   0.004004515
C       -0.001349440   0.493874774   0.005685709
C        0.088282267   0.411961697   0.002125302
C        0.262061350   0.493826999  -0.005310460
C        0.342692533   0.405233746   0.001790012
C        0.565773036   0.405046795   0.010578177
C        0.735821691   0.494499794   0.015218642
C        0.827352725   0.411957002   0.008042593
C       -0.004047535   0.741413473   0.014603759
C        0.081752480   0.659221216   0.008233368
C        0.249883725   0.742423869   0.002503227
C        0.336330515   0.662477190  -0.014625664
C        0.494189847   0.757025844  -0.039677657
Cl       0.573394517   0.687841921  -0.120808864
C        0.755974287   0.752546064   0.044454168
C        0.829493902   0.661445030   0.023327004
C        0.079867227   0.908305352   0.013720489
C        0.331172678   0.908078719   0.005301701
C        0.582879748   0.914746826  -0.010836608
C        0.834368025   0.916161694   0.018679660
O        0.625890541   0.689318110   0.087197056
O        0.678967484   0.651555655   0.208588735
H        0.601728756   0.673326192   0.235686691
K_POINTS automatic 
  20 20 1   0 0 0 

