 &CONTROL
                 calculation = 'scf' ,
                      outdir = './tmp/' ,
                  pseudo_dir = '/home/deleted/pseudo_psl' ,
                      prefix = 'GF_ip' ,
                   verbosity = 'high' ,
               etot_conv_thr = 1.0D-5 ,
               forc_conv_thr = 4.0D-4 ,
                       nstep = 1000 ,
                    dipfield = .true. ,
 /
 &SYSTEM
                       ibrav = 4,
                           A = 9.88 ,
                           C = 15 ,
                         nat = 33,
                        ntyp = 3,
                     ecutwfc = 40.424239707 ,
                     ecutrho = 404.24239707 ,
                 occupations = 'smearing' ,
                     degauss = 0.01 ,
				   input_dft = 'vdW-DF' ,
 /
 &ELECTRONS
            electron_maxstep = 50001,
                    conv_thr = 1.0D-6 ,
                 mixing_mode = 'local-TF' ,
                 mixing_beta = 0.5 ,
 /
ATOMIC_SPECIES
    C   12.01100  C.revpbe-n-kjpaw_psl.0.1.UPF 
    F   18.99800  F.revpbe-n-kjpaw_psl.0.1.UPF 
    O   15.99940  O.revpbe-n-kjpaw_psl.0.1.UPF 
ATOMIC_POSITIONS crystal 
C        0.007945460   0.011820365   0.003947167
C        0.251427573   0.002855146   0.006550600
C        0.503874905   0.011820365   0.003947167
C        0.758817550   0.017635099  -0.002834588
C        0.008997418   0.262451674   0.001828508
C        0.091004107   0.177906404   0.003612350
C        0.257754921   0.256192800   0.003922193
C        0.333031292   0.166062584   0.006695128
C        0.498437879   0.256192800   0.003922193
C        0.586902295   0.177906404   0.003612350
C        0.753454255   0.262451674   0.001828508
C        0.840851647   0.181703294   0.000202931
C        0.004406493   0.508812986   0.002596104
C        0.095745602   0.427591325   0.002065157
C        0.269796247   0.506842457   0.001350788
C        0.353790702   0.418006049   0.002382919
C        0.564215346   0.418006049   0.002382919
C        0.737046210   0.506842457   0.001350788
C        0.831845721   0.427591325   0.002065157
C        0.001162384   0.756194517   0.004677311
C        0.086790640   0.673581281   0.004748050
C        0.255032133   0.756194517   0.004677311
C        0.342980825   0.674132183   0.000963185
C        0.502341530   0.774293906  -0.002951109
F        0.596263586   0.692527174  -0.025403027
C        0.771952376   0.774293906  -0.002951109
C        0.831151357   0.674132183   0.000963185
C        0.085089391   0.922272257   0.005523049
C        0.337182864   0.922272257   0.005523049
C        0.592267584   0.934016816  -0.001347167
C        0.841749231   0.934016816  -0.001347167
O        0.456534204   0.413068408   0.168813500
O        0.383489598   0.266979196   0.186682606
K_POINTS automatic 
  16 16 1   0 0 0 

