&BANDS
	prefix = 'GCl_op' ,
	outdir = './tmp/' ,
	filband = 'GCl_op-dn-bands' ,
	plot_2d = .false. ,
    spin_component = 2 ,
    no_overlap = .true. ,
/
