 &CONTROL
                 calculation = 'bands' ,
                      outdir = './tmp/' ,
                  pseudo_dir = '/home/deleted/pseudo_psl' ,
                      prefix = 'GCl_ip' ,
                   verbosity = 'high' ,
               etot_conv_thr = 1.0D-5 ,
               forc_conv_thr = 4.0D-4 ,
                       nstep = 1000 ,
                    dipfield = .true. ,
 /
 &SYSTEM
                       ibrav = 4,
                           A = 9.88 ,
                           C = 15 ,
                         nat = 34,
                        ntyp = 4,
                     ecutwfc = 40.424239707 ,
                     ecutrho = 404.24239707 ,
                 occupations = 'tetrahedra' ,
                     degauss = 0.01 ,
				   input_dft = 'vdW-DF' ,
 /
 &ELECTRONS
            electron_maxstep = 50001,
                    conv_thr = 1.0D-6 ,
                 mixing_mode = 'local-TF' ,
                 mixing_beta = 0.5 ,
 /
ATOMIC_SPECIES
    C   12.01100  C.revpbe-n-kjpaw_psl.0.1.UPF 
   Cl   35.45200  Cl.revpbe-n-kjpaw_psl.0.3.0.UPF 
    O   15.99940  O.revpbe-n-kjpaw_psl.0.1.UPF 
    H   1.008000  H.revpbe-kjpaw_psl.0.1.UPF
ATOMIC_POSITIONS crystal 
C        0.002238679   0.001555841   0.000503420
C        0.255010965   0.008173851   0.001178623
C        0.501144356   0.001308597   0.000239029
C        0.749060487  -0.003771908  -0.001421733
C       -0.000767957   0.249121847   0.001065902
C        0.085214368   0.169386169   0.000524141
C        0.254181042   0.257757349   0.000120352
C        0.338219551   0.174632165  -0.000099266
C        0.505349170   0.257428968   0.000051878
C        0.586033960   0.169137620   0.000201381
C        0.751789896   0.249077267   0.000954945
C        0.832292452   0.162652812   0.000149582
C        0.001605767   0.501370982   0.003376162
C        0.079888644   0.415637609   0.002571959
C        0.244296319   0.500845987   0.002742662
C        0.325494278   0.422839170   0.001080027
C        0.598934038   0.422557763   0.001535498
C        0.758245706   0.500810904   0.003089799
C        0.837597026   0.415634748   0.002667538
C        0.007241879   0.755128693   0.003330742
C        0.085569158   0.669366687   0.003932006
C        0.249654749   0.755104277   0.003223233
C        0.328857243   0.669917604   0.002496289
C        0.488181272   0.747969334  -0.000534059
Cl       0.544274204   0.587289166  -0.006920929
C        0.761674364   0.748254702  -0.000429787
C        0.842789277   0.670026465   0.002754595
C        0.088059582   0.921689841   0.001795904
C        0.335465072   0.921647179   0.001710045
C        0.581906162   0.913065946  -0.001195436
C        0.833249530   0.913319844  -0.001071753
O        0.540971101   0.598432317   0.159701804
O        0.467438671   0.438405642   0.183845946
H        0.555814420   0.424568653   0.200843465
K_POINTS crystal_b 
4
0.0000000000    0.0000000000    0.0000000000 17
0.0000000000    0.5000000000    0.0000000000 10
0.3333333333    0.3333333333    0.0000000000 20
0.0000000000    0.0000000000    0.0000000000 1

