 &CONTROL
                 calculation = 'bands' ,
                      outdir = './tmp/' ,
                  pseudo_dir = '/home/deleted/pseudo_psl' ,
                      prefix = 'GF_op' ,
                   verbosity = 'high' ,
               etot_conv_thr = 1.0D-5 ,
               forc_conv_thr = 4.0D-4 ,
                       nstep = 1000 ,
                    dipfield = .true. ,
 /
 &SYSTEM
                       ibrav = 4,
                           A = 9.88 ,
                           C = 15 ,
                         nat = 34,
                        ntyp = 4,
                     ecutwfc = 40.424239707 ,
                     ecutrho = 404.24239707 ,
                 occupations = 'tetrahedra' ,
                     degauss = 0.01 ,
				   input_dft = 'vdW-DF' ,
 /
 &ELECTRONS
            electron_maxstep = 50001,
                    conv_thr = 1.0D-6 ,
                 mixing_mode = 'local-TF' ,
                 mixing_beta = 0.5 ,
 /
ATOMIC_SPECIES
    C   12.01100  C.revpbe-n-kjpaw_psl.0.1.UPF 
    F   18.99800  F.revpbe-n-kjpaw_psl.0.1.UPF 
    O   15.99940  O.revpbe-n-kjpaw_psl.0.1.UPF 
	H   1.00800   H.revpbe-kjpaw_psl.0.1.UPF
ATOMIC_POSITIONS crystal 
C        0.007843180   0.011914497   0.009597492
C        0.255247710   0.008988200   0.004814006
C        0.505543676   0.012279850  -0.000987362
C        0.757371817   0.012717394   0.003185161
C        0.009002238   0.262551083   0.003863207
C        0.090868473   0.178290356   0.003804841
C        0.258683668   0.260159905   0.003174851
C        0.337111482   0.172424229   0.005344687
C        0.503356604   0.260435573   0.007112333
C        0.589193623   0.178579316   0.005275716
C        0.755502355   0.262349020   0.003455024
C        0.840333936   0.178564646   0.003481798
C        0.006819451   0.511322353   0.002523256
C        0.094383835   0.428536619  -0.000418296
C        0.267057951   0.511453513  -0.008157818
C        0.344591611   0.422125959  -0.000915497
C        0.578822565   0.422812217   0.009967871
C        0.746927237   0.510933409   0.013226942
C        0.836495419   0.428279372   0.006195364
C        0.005848349   0.760315656   0.009649290
C        0.089392358   0.676937857   0.002644450
C        0.256366484   0.760620465  -0.003757056
C        0.341622752   0.679950931  -0.017555627
C        0.500714267   0.773680061  -0.036498952
F        0.572444450   0.703400625  -0.079250064
C        0.773035293   0.771557704   0.041245978
C        0.839804718   0.679147918   0.021953616
C        0.088720779   0.926376923   0.009051792
C        0.339255068   0.926558545  -0.000620174
C        0.590768663   0.931743451  -0.012173243
C        0.841726321   0.930817639   0.018701766
O        0.676120539   0.734044025   0.185035266
O        0.626371321   0.701266097   0.087380556
H        0.572194929   0.584344044   0.079713458
K_POINTS crystal_b 
4
0.0000000000    0.0000000000    0.0000000000 17
0.0000000000    0.5000000000    0.0000000000 10
0.3333333333    0.3333333333    0.0000000000 20
0.0000000000    0.0000000000    0.0000000000 1