 &BANDS
                      prefix = 'B1_ip' ,
                      outdir = './tmp/' ,
                     filband = 'B1_ip-bands' ,
                     plot_2d = .false. ,
 /
