 &BANDS
                      prefix = 'F' ,
                      outdir = './tmp/' ,
                     filband = 'F-bands' ,
                     plot_2d = .false. ,
 /
