 &CONTROL
                 calculation = 'scf' ,
                      outdir = './tmp/' ,
                  pseudo_dir = '/home/deleted/pseudo_psl' ,
                      prefix = 'GBr_ip' ,
                   verbosity = 'high' ,
               etot_conv_thr = 1.0D-5 ,
               forc_conv_thr = 4.0D-4 ,
                       nstep = 1000 ,
                    dipfield = .true. ,
 /
 &SYSTEM
                       ibrav = 4,
                           A = 9.88 ,
                           C = 15 ,
                         nat = 33,
                        ntyp = 3,
                     ecutwfc = 40.424239707 ,
                     ecutrho = 404.24239707 ,
                 occupations = 'smearing' ,
                     degauss = 0.01 ,
				   input_dft = 'vdW-DF' ,
 /
 &ELECTRONS
            electron_maxstep = 50001,
                    conv_thr = 1.0D-6 ,
                 mixing_mode = 'local-TF' ,
                 mixing_beta = 0.5 ,
 /
ATOMIC_SPECIES
    C   12.01100  C.revpbe-n-kjpaw_psl.0.1.UPF 
   Br   79.90350  Br.revpbe-n-kjpaw_psl.0.2.UPF 
    O   15.99940  O.revpbe-n-kjpaw_psl.0.1.UPF 
ATOMIC_POSITIONS crystal 
C        0.002169132   0.012143346   0.003800652
C        0.254657502   0.018813959   0.006327767
C        0.500472377   0.011900645   0.002603894
C        0.748521950   0.006623424  -0.003234034
C       -0.001694386   0.259062855   0.007891864
C        0.084158293   0.179309184   0.002897465
C        0.251902167   0.266504048  -0.005103472
C        0.337512901   0.184606022  -0.003018919
C        0.505076940   0.266403498  -0.003342639
C        0.585654047   0.179075768   0.003695107
C        0.751218994   0.258957439   0.009110100
C        0.831438095   0.172401003   0.006324215
C        0.001226786   0.511571944   0.018915341
C        0.078982742   0.425704815   0.012245138
C        0.241752485   0.510696044  -0.000115222
C        0.318678559   0.429784713  -0.014054642
C        0.601371065   0.430005660  -0.008694309
C        0.759075429   0.510686583   0.005534824
C        0.837288788   0.425520265   0.015043915
C        0.007380203   0.765740416   0.015022499
C        0.085289098   0.679693506   0.018890244
C        0.248900011   0.765554106   0.012057760
C        0.326663863   0.680566301  -0.000357740
C        0.484382390   0.761475019  -0.014813598
Br       0.543770676   0.595570443  -0.037721619
C        0.767056245   0.761269575  -0.009120933
C        0.844041060   0.680607986   0.005432459
C        0.087899391   0.932297613   0.009138030
C        0.334877025   0.932158941   0.007680870
C        0.580974158   0.924663920  -0.005528363
C        0.834305659   0.924853779  -0.003511369
O        0.539009118   0.595790164   0.154956953
O        0.431576206   0.613796190   0.191047763
K_POINTS automatic 
  16 16 1   0 0 0 

