 &CONTROL
                 calculation = 'relax' ,
                      outdir = './tmp/' ,
                  pseudo_dir = '/home/deleted/pseudo_psl' ,
                      prefix = 'GCl_ip' ,
                   verbosity = 'high' ,
               etot_conv_thr = 1.0D-5 ,
               forc_conv_thr = 4.0D-4 ,
                       nstep = 1000 ,
                    dipfield = .true. ,
 /
 &SYSTEM
                       ibrav = 4,
                           A = 9.88 ,
                           C = 15 ,
                         nat = 34,
                        ntyp = 4,
                     ecutwfc = 40.424239707 ,
                     ecutrho = 404.24239707 ,
                 occupations = 'smearing' ,
                     degauss = 0.01 ,
				   input_dft = 'vdW-DF' ,
    nspin = 2 ,
    starting_magnetization(1) = 0.5,
    starting_magnetization(2) = 0.5,
    starting_magnetization(3) = 0.5,
	starting_magnetization(4) = 0.5,
 /
 &ELECTRONS
            electron_maxstep = 50001,
                    conv_thr = 1.0D-6 ,
                 mixing_mode = 'local-TF' ,
                 mixing_beta = 0.5 ,
 /
 &IONS
                ion_dynamics = 'bfgs' ,
 /
ATOMIC_SPECIES
    C   12.01100  C.revpbe-n-kjpaw_psl.0.1.UPF 
   Cl   35.45200  Cl.revpbe-n-kjpaw_psl.0.3.0.UPF 
    O   15.99940  O.revpbe-n-kjpaw_psl.0.1.UPF 
    H   1.008000  H.revpbe-kjpaw_psl.0.1.UPF
ATOMIC_POSITIONS (crystal)
C        0.001882087   0.002498375  -0.000607762
C        0.254295594   0.008591187  -0.000065063
C        0.500616287   0.002498375  -0.000607762
C        0.748699309  -0.002601381  -0.001483623
C       -0.001332069   0.249889114   0.000032608
C        0.084363299   0.169791311  -0.000771873
C        0.252761269   0.257480150  -0.002101868
C        0.337431785   0.174863570  -0.001717771
C        0.504718881   0.257480150  -0.002101868
C        0.585428011   0.169791311  -0.000771873
C        0.751221183   0.249889114   0.000032608
C        0.831823068   0.163646136  -0.000139475
C        0.001028900   0.502057801   0.001538819
C        0.079310377   0.416390123   0.000650326
C        0.243636015   0.501374767  -0.001261657
C        0.323748824   0.421895069  -0.003590470
C        0.598146243   0.421895069  -0.003590470
C        0.757738752   0.501374767  -0.001261657
C        0.837079745   0.416390123   0.000650326
C        0.006819705   0.755773845   0.000910331
C        0.085021421   0.670042845   0.001644122
C        0.248954140   0.755773845   0.000910331
C        0.328317039   0.670814026  -0.000949943
C        0.487919502   0.750376973  -0.002887054
Cl       0.542954368   0.585908738  -0.005787196
C        0.762457471   0.750376973  -0.002887054
C        0.842496987   0.670814026  -0.000949943
C        0.087481725   0.922309763   0.000251245
C        0.334828038   0.922309763   0.000251245
C        0.581368671   0.914817412  -0.001701144
C        0.833448740   0.914817412  -0.001701144
O        0.562636099   0.498667960   0.215032354
O        0.436031862   0.498667960   0.215032354
H        0.499333981   0.639869437   0.251776396
K_POINTS automatic 
  4 4 1   0 0 0 

