 &CONTROL
                 calculation = 'nscf' ,
                      outdir = './tmp/' ,
                  pseudo_dir = '/home/deleted/pseudo_psl' ,
                      prefix = 'GCl_op' ,
                   verbosity = 'high' ,
               etot_conv_thr = 1.0D-5 ,
               forc_conv_thr = 4.0D-4 ,
                       nstep = 1000 ,
                    dipfield = .true. ,
 /
 &SYSTEM
                       ibrav = 4,
                           A = 9.88 ,
                           C = 15 ,
                         nat = 34,
                        ntyp = 4,
                     ecutwfc = 40.424239707 ,
                     ecutrho = 404.24239707 ,
                 occupations = 'tetrahedra' ,
                     degauss = 0.01 ,
				   input_dft = 'vdW-DF' ,
 /
 &ELECTRONS
            electron_maxstep = 50001,
                    conv_thr = 1.0D-6 ,
                 mixing_mode = 'local-TF' ,
                 mixing_beta = 0.5 ,
 /
ATOMIC_SPECIES
    C   12.01100  C.revpbe-n-kjpaw_psl.0.1.UPF 
   Cl   35.45200  Cl.revpbe-n-kjpaw_psl.0.3.0.UPF 
    O   15.99940  O.revpbe-n-kjpaw_psl.0.1.UPF 
    H   1.008000  H.revpbe-kjpaw_psl.0.1.UPF
ATOMIC_POSITIONS crystal 
C        0.003886714   0.012746939   0.010734831
C        0.251090571   0.008478093  -0.002748397
C        0.502720466   0.012144278   0.004559903
C        0.755032616   0.016517556   0.029554339
C        0.004293436   0.263139470   0.011433725
C        0.085930213   0.178689113   0.007099079
C        0.251709926   0.259067772   0.001888473
C        0.335055796   0.174281953  -0.002446689
C        0.499100706   0.255039669   0.003214926
C        0.585974242   0.178049036   0.003993053
C        0.753042358   0.262674839   0.011073683
C        0.836699823   0.180932726   0.016572832
C        0.002680125   0.511500759   0.010753576
C        0.088218505   0.428739730   0.010570483
C        0.257379105   0.510542941   0.012461647
C        0.335135825   0.422469185   0.004032014
C        0.574950056   0.419168415   0.033836928
C        0.750094888   0.511769334   0.019832502
C        0.834260937   0.429714958   0.012404994
C        0.001479921   0.760569471   0.009922688
C        0.085134691   0.676960150   0.006183602
C        0.252984157   0.760288808   0.005732947
C        0.337507219   0.678528568   0.020069931
C        0.495386507   0.774886723   0.043309614
Cl       0.597845551   0.712040185   0.113733063
C        0.773180005   0.774957836   0.049987853
C        0.834033986   0.676716333   0.026662372
C        0.084446493   0.926756306   0.004847501
C        0.335827727   0.926632376   0.001132947
C        0.587177598   0.934511351   0.026070351
C        0.841236924   0.934379839   0.031392774
O        0.496533328   0.496727341  -0.006593959
O        0.542553854   0.414912600   0.132628771
H        0.542847286   0.322721679   0.155343253
K_POINTS automatic  
  20 20 1   0 0 0 

