 &CONTROL
                 calculation = 'scf' ,
                      outdir = './tmp/' ,
                  pseudo_dir = '/home/deleted/pseudo_psl' ,
                      prefix = 'GCl_ip' ,
                   verbosity = 'high' ,
               etot_conv_thr = 1.0D-5 ,
               forc_conv_thr = 4.0D-4 ,
                       nstep = 1000 ,
                    dipfield = .true. ,
 /
 &SYSTEM
                       ibrav = 4,
                           A = 9.88 ,
                           C = 15 ,
                         nat = 33,
                        ntyp = 3,
                     ecutwfc = 40.424239707 ,
                     ecutrho = 404.24239707 ,
                 occupations = 'smearing' ,
                     degauss = 0.01 ,
				   input_dft = 'vdW-DF' ,
    nspin = 2 ,
    starting_magnetization(1) = 0.5,
    starting_magnetization(2) = 0.5,
    starting_magnetization(3) = 0.5,
 /
 &ELECTRONS
            electron_maxstep = 50001,
                    conv_thr = 1.0D-6 ,
                 mixing_mode = 'local-TF' ,
                 mixing_beta = 0.5 ,
 /
ATOMIC_SPECIES
    C   12.01100  C.revpbe-n-kjpaw_psl.0.1.UPF 
   Cl   35.45200  Cl.revpbe-n-kjpaw_psl.0.3.0.UPF 
    O   15.99940  O.revpbe-n-kjpaw_psl.0.1.UPF 
ATOMIC_POSITIONS (crystal)
C        0.000239646  -0.002275163   0.005749290
C        0.245457394  -0.009085213   0.014853956
C        0.497485191  -0.002275163   0.005749290
C        0.751329608   0.002659217  -0.013805401
C        0.001240178   0.248082893   0.004758262
C        0.083581273   0.164136782   0.009309309
C        0.250882155   0.243834910   0.013676844
C        0.327073915   0.154147832   0.016236007
C        0.492952755   0.243834910   0.013676844
C        0.580555508   0.164136782   0.009309309
C        0.746842715   0.248082893   0.004758262
C        0.833267658   0.166535316  -0.001224933
C       -0.002335536   0.495328928   0.006447417
C        0.087499975   0.413679883   0.005804014
C        0.261284243   0.494271100   0.003650809
C        0.344028349   0.406067281   0.009221677
C        0.562038931   0.406067281   0.009221677
C        0.732986857   0.494271100   0.003650809
C        0.826179907   0.413679883   0.005804014
C       -0.004727948   0.743148213   0.008702389
C        0.080187868   0.660375739   0.010856678
C        0.247876162   0.743148213   0.008702389
C        0.334150455   0.661972005  -0.003578988
C        0.491838690   0.758708890  -0.024114884
Cl       0.589734129   0.679468261  -0.086618178
C        0.766870198   0.758708890  -0.024114884
C        0.827821549   0.661972005  -0.003578988
C        0.078631863   0.909488234   0.010700450
C        0.330856371   0.909488234   0.010700450
C        0.583284653   0.919984848  -0.012644798
C        0.836700194   0.919984848  -0.012644798
O        0.617857250   0.735714502   0.169568650
O        0.560027555   0.620055113   0.221217056
K_POINTS automatic 
  16 16 1   0 0 0 

