 &CONTROL
                 calculation = 'relax' ,
                      outdir = './tmp/' ,
                  pseudo_dir = '/home/deleted/pseudo_psl' ,
                      prefix = 'GF_op' ,
                   verbosity = 'high' ,
               etot_conv_thr = 1.0D-5 ,
               forc_conv_thr = 4.0D-4 ,
                       nstep = 1000 ,
                    dipfield = .true. ,
 /
 &SYSTEM
                       ibrav = 4,
                           A = 9.88 ,
                           C = 15 ,
                         nat = 34,
                        ntyp = 4,
                     ecutwfc = 40.424239707 ,
                     ecutrho = 404.24239707 ,
                 occupations = 'smearing' ,
                     degauss = 0.01 ,
				   input_dft = 'vdW-DF' ,
    nspin = 2 ,
    starting_magnetization(1) = 0.5,
    starting_magnetization(2) = 0.5,
    starting_magnetization(3) = 0.5,
	starting_magnetization(4) = 0.5,
 /
 &ELECTRONS
            electron_maxstep = 50001,
                    conv_thr = 1.0D-6 ,
                 mixing_mode = 'local-TF' ,
                 mixing_beta = 0.5 ,
    diagonalization = 'cg' ,
 /
 &IONS
                ion_dynamics = 'bfgs' ,
 /
ATOMIC_SPECIES
    C   12.01100  C.revpbe-n-kjpaw_psl.0.1.UPF 
    F   18.99800  F.revpbe-n-kjpaw_psl.0.1.UPF 
    O   15.99940  O.revpbe-n-kjpaw_psl.0.1.UPF 
    H   1.008000  H.revpbe-kjpaw_psl.0.1.UPF
ATOMIC_POSITIONS (crystal)
C        0.002721621   0.001253374  -0.000408760
C        0.246464593  -0.007070815  -0.001833068
C        0.498531753   0.001253374  -0.000408760
C        0.753496213   0.006992427   0.003199542
C        0.003715412   0.251983248   0.000248507
C        0.085735057   0.167460572  -0.000724165
C        0.252489721   0.245768678  -0.001667830
C        0.327843142   0.155686285  -0.002038601
C        0.493278958   0.245768678  -0.001667830
C        0.581725514   0.167460572  -0.000724165
C        0.748267836   0.251983248   0.000248507
C        0.835583837   0.171167675   0.001365037
C       -0.000804439   0.498391122  -0.000267803
C        0.090227557   0.417226970  -0.000112529
C        0.264654695   0.496445202  -0.000162255
C        0.347525373   0.407803624  -0.001162785
C        0.560278250   0.407803624  -0.001162785
C        0.731790508   0.496445202  -0.000162255
C        0.826999412   0.417226970  -0.000112529
C       -0.003687395   0.745880128  -0.001045789
C        0.081729098   0.663458196  -0.001192212
C        0.249567522   0.745880128  -0.001045789
C        0.337734015   0.664262132   0.000507839
C        0.496942256   0.763981588   0.002635349
F        0.589643559   0.679287120   0.014112629
C        0.767039331   0.763981588   0.002635349
C        0.826528117   0.664262132   0.000507839
C        0.079874205   0.911994526  -0.001271850
C        0.332120320   0.911994526  -0.001271850
C        0.587171420   0.923636907   0.002396341
C        0.836465486   0.923636907   0.002396341
O        0.592604016   0.685208033   0.201069359
O        0.592492530   0.684985062   0.284983108
H        0.728341861   0.617199719   0.243026234
K_POINTS automatic 
  4 4 1   0 0 0 

