 &CONTROL
                 calculation = 'relax' ,
                      outdir = './tmp/' ,
                  pseudo_dir = '/home/deleted/pseudo_psl' ,
                      prefix = 'GF_op' ,
                   verbosity = 'high' ,
               etot_conv_thr = 1.0D-5 ,
               forc_conv_thr = 4.0D-4 ,
                       nstep = 1000 ,
                    dipfield = .true. ,
 /
 &SYSTEM
                       ibrav = 4,
                           A = 9.88 ,
                           C = 15 ,
                         nat = 34,
                        ntyp = 4,
                     ecutwfc = 40.424239707 ,
                     ecutrho = 404.24239707 ,
                 occupations = 'smearing' ,
                     degauss = 0.01 ,
				   input_dft = 'vdW-DF' ,
    nspin = 2 ,
    starting_magnetization(1) = 0.5,
    starting_magnetization(2) = 0.5,
    starting_magnetization(3) = 0.5,
 /
 &ELECTRONS
            electron_maxstep = 50001,
                    conv_thr = 1.0D-6 ,
                 mixing_mode = 'local-TF' ,
                 mixing_beta = 0.5 ,
    diagonalization = 'cg' ,
 /
 &IONS
                ion_dynamics = 'bfgs' ,
 /
ATOMIC_SPECIES
    C   12.01100  C.revpbe-n-kjpaw_psl.0.1.UPF 
    F   18.99800  F.revpbe-n-kjpaw_psl.0.1.UPF 
    O   15.99940  O.revpbe-n-kjpaw_psl.0.1.UPF 
    H   1.008000  H.revpbe-kjpaw_psl.0.1.UPF
ATOMIC_POSITIONS (crystal)
C       -0.000271367  -0.004222102   0.014414429
C        0.246688996  -0.008626758   0.011204221
C        0.498115042  -0.004667850   0.004760695
C        0.750891245  -0.003130808   0.006235938
C        0.002044104   0.246409861   0.007958123
C        0.083869729   0.162184491   0.008079352
C        0.251375685   0.243638391   0.007859545
C        0.328922330   0.155232251   0.010914429
C        0.495714649   0.243990339   0.012252812
C        0.581815278   0.162091470   0.010919898
C        0.748120223   0.246205947   0.008355271
C        0.833527075   0.163018428   0.007167166
C       -0.000930621   0.494489192   0.007587191
C        0.088161240   0.412338732   0.004640246
C        0.261569264   0.494455465  -0.002602176
C        0.341823843   0.406132716   0.003747694
C        0.567730400   0.406333971   0.013327267
C        0.737544758   0.495130659   0.018024369
C        0.828279944   0.412105687   0.010934958
C       -0.003332608   0.742415131   0.015539185
C        0.081709129   0.660081026   0.008231467
C        0.249300077   0.743586912   0.002366818
C        0.335237177   0.663094820  -0.011516728
C        0.494072015   0.756643084  -0.031188632
F        0.564661818   0.687582315  -0.075602055
C        0.758139569   0.752505869   0.049464413
C        0.831162377   0.661836933   0.027050574
C        0.080574357   0.909527653   0.015301651
C        0.331576288   0.909291672   0.005786500
C        0.583326679   0.915218462  -0.007608080
C        0.834346550   0.915359627   0.021539435
O        0.702032465   0.760971701   0.217819110
O        0.631614277   0.690942300   0.095631682
H        0.625679372   0.658531136   0.242291609
K_POINTS automatic 
  4 4 1   0 0 0 

