 &CONTROL
                 calculation = 'relax' ,
                      outdir = './tmp/' ,
                  pseudo_dir = '/home/deleted/pseudo_psl' ,
                      prefix = 'GF_op' ,
                   verbosity = 'high' ,
               etot_conv_thr = 1.0D-5 ,
               forc_conv_thr = 4.0D-4 ,
                       nstep = 1000 ,
                    dipfield = .true. ,
 /
 &SYSTEM
                       ibrav = 4,
                           A = 9.88 ,
                           C = 15 ,
                         nat = 34,
                        ntyp = 4,
                     ecutwfc = 40.424239707 ,
                     ecutrho = 404.24239707 ,
                 occupations = 'smearing' ,
                     degauss = 0.01 ,
				   input_dft = 'vdW-DF' ,
    nspin = 2 ,
    starting_magnetization(1) = 0.5,
    starting_magnetization(2) = 0.5,
    starting_magnetization(3) = 0.5,
 /
 &ELECTRONS
            electron_maxstep = 50001,
                    conv_thr = 1.0D-6 ,
                 mixing_mode = 'local-TF' ,
                 mixing_beta = 0.5 ,
    diagonalization = 'cg' ,
 /
 &IONS
                ion_dynamics = 'bfgs' ,
 /
ATOMIC_SPECIES
    C   12.01100  C.revpbe-n-kjpaw_psl.0.1.UPF 
    F   18.99800  F.revpbe-n-kjpaw_psl.0.1.UPF 
    O   15.99940  O.revpbe-n-kjpaw_psl.0.1.UPF 
    H   1.008000  H.revpbe-kjpaw_psl.0.1.UPF
ATOMIC_POSITIONS (crystal)
C        0.000381052  -0.001403642   0.005953063
C        0.244594899  -0.009103409   0.006594478
C        0.496678985  -0.001099311   0.003022250
C        0.751362380   0.004532897  -0.001244638
C        0.001515982   0.249382416   0.006787609
C        0.083451035   0.164843562   0.008363859
C        0.250343372   0.243580078   0.009570083
C        0.326061962   0.153705091   0.007549579
C        0.491540756   0.243767484   0.005709528
C        0.579765394   0.165179070   0.004223155
C        0.746204774   0.249824632   0.004149303
C        0.833260249   0.168540853   0.003510867
C       -0.003009853   0.496153978   0.005530617
C        0.087864151   0.414647569   0.006456173
C        0.262392765   0.494027498   0.006404751
C        0.344776277   0.405662040   0.008481587
C        0.559066683   0.405833160   0.005033345
C        0.729756492   0.494418944   0.003983301
C        0.824769580   0.415022866   0.004663160
C       -0.005914601   0.743703340   0.005543729
C        0.079617385   0.661158182   0.006546661
C        0.247780508   0.743805260   0.006226332
C        0.336191886   0.662143993   0.003820598
C        0.495152494   0.760933545  -0.001835737
F        0.588682517   0.679056578  -0.024355340
C        0.764099622   0.761162770  -0.001613461
C        0.824172396   0.662335040   0.002515333
C        0.077846625   0.909736453   0.006178965
C        0.330290968   0.909899309   0.005338564
C        0.584743903   0.920874047  -0.001821633
C        0.834139587   0.920960867   0.000532609
O        0.711535399   0.690416878   0.198214135
O        0.575930574   0.696008534   0.168654456
H        0.690045158   0.670988149   0.262201095
K_POINTS automatic 
  4 4 1   0 0 0 

