 &CONTROL
                 calculation = 'relax' ,
                      outdir = './tmp/' ,
                  pseudo_dir = '/home/deleted/pseudo_psl' ,
                      prefix = 'GF_op' ,
                   verbosity = 'high' ,
               etot_conv_thr = 1.0D-5 ,
               forc_conv_thr = 4.0D-4 ,
                       nstep = 1000 ,
                    dipfield = .true. ,
 /
 &SYSTEM
                       ibrav = 4,
                           A = 9.88 ,
                           C = 15 ,
                         nat = 34,
                        ntyp = 4,
                     ecutwfc = 40.424239707 ,
                     ecutrho = 404.24239707 ,
                 occupations = 'smearing' ,
                     degauss = 0.01 ,
				   input_dft = 'vdW-DF' ,
    nspin = 2 ,
    starting_magnetization(1) = 0.5,
    starting_magnetization(2) = 0.5,
    starting_magnetization(3) = 0.5,
 /
 &ELECTRONS
            electron_maxstep = 50001,
                    conv_thr = 1.0D-6 ,
                 mixing_mode = 'local-TF' ,
                 mixing_beta = 0.5 ,
    diagonalization = 'cg' ,
 /
 &IONS
                ion_dynamics = 'bfgs' ,
 /
ATOMIC_SPECIES
    C   12.01100  C.revpbe-n-kjpaw_psl.0.1.UPF 
    F   18.99800  F.revpbe-n-kjpaw_psl.0.1.UPF 
    O   15.99940  O.revpbe-n-kjpaw_psl.0.1.UPF 
    H   1.008000  H.revpbe-kjpaw_psl.0.1.UPF
ATOMIC_POSITIONS (crystal)
C       -0.004628025  -0.014820897   0.026617625
C        0.236667298  -0.022768916   0.009210289
C        0.489103986  -0.016871456   0.002812777
C        0.741178752  -0.014615714   0.014001218
C       -0.006419650   0.233907976   0.012279043
C        0.076082936   0.149203038   0.015153074
C        0.242749614   0.229559202   0.008971006
C        0.318505019   0.140193227   0.008013717
C        0.485502431   0.230946463   0.006187332
C        0.572175669   0.149466525   0.005113033
C        0.738158850   0.232964704   0.003545617
C        0.823395958   0.149413268   0.009218873
C       -0.011164071   0.481128642   0.005733470
C        0.079296453   0.397693855   0.005237626
C        0.254714965   0.479862569  -0.000447238
C        0.336352878   0.392592024   0.004437420
C        0.553594603   0.392097507   0.008406020
C        0.725322370   0.481545377   0.013229311
C        0.817650355   0.399092002   0.005705531
C       -0.015749515   0.727147627   0.018770439
C        0.070940166   0.646164972   0.008647125
C        0.240463428   0.729718972   0.003670596
C        0.327985969   0.649034020  -0.006932008
C        0.488459212   0.742426650  -0.020793722
F        0.567966759   0.676800489  -0.059057684
C        0.747144014   0.731980301   0.068076909
C        0.818708521   0.646198236   0.027529345
C        0.070189640   0.897088550   0.019495347
C        0.322059231   0.895031590   0.004117463
C        0.576551286   0.903181587  -0.001610042
C        0.830096935   0.912576795   0.059817441
O        0.848192578   0.965794176   0.154042762
O        0.632779505   0.667352836   0.118159325
H        0.751063238   0.889612526   0.183529338
K_POINTS automatic 
  4 4 1   0 0 0 

