 &CONTROL
                 calculation = 'relax' ,
                      outdir = './tmp/' ,
                  pseudo_dir = '/home/deleted/pseudo_psl' ,
                      prefix = 'GF_op' ,
                   verbosity = 'high' ,
               etot_conv_thr = 1.0D-5 ,
               forc_conv_thr = 4.0D-4 ,
                       nstep = 1000 ,
                    dipfield = .true. ,
 /
 &SYSTEM
                       ibrav = 4,
                           A = 9.88 ,
                           C = 15 ,
                         nat = 34,
                        ntyp = 4,
                     ecutwfc = 40.424239707 ,
                     ecutrho = 404.24239707 ,
                 occupations = 'smearing' ,
                     degauss = 0.01 ,
				   input_dft = 'vdW-DF' ,
    nspin = 2 ,
    starting_magnetization(1) = 0.5,
    starting_magnetization(2) = 0.5,
    starting_magnetization(3) = 0.5,
 /
 &ELECTRONS
            electron_maxstep = 50001,
                    conv_thr = 1.0D-6 ,
                 mixing_mode = 'local-TF' ,
                 mixing_beta = 0.5 ,
    diagonalization = 'cg' ,
 /
 &IONS
                ion_dynamics = 'bfgs' ,
 /
ATOMIC_SPECIES
    C   12.01100  C.revpbe-n-kjpaw_psl.0.1.UPF 
    F   18.99800  F.revpbe-n-kjpaw_psl.0.1.UPF 
    O   15.99940  O.revpbe-n-kjpaw_psl.0.1.UPF 
    H   1.008000  H.revpbe-kjpaw_psl.0.1.UPF
ATOMIC_POSITIONS (crystal)
C        0.000866253  -0.002325763   0.006032159
C        0.244948946  -0.010399734   0.009950690
C        0.497044981  -0.002233987   0.005867259
C        0.751836196   0.003548825  -0.002221087
C        0.001994495   0.248468869   0.004836974
C        0.083968814   0.163940563   0.007092501
C        0.250836029   0.242446931   0.008829446
C        0.326334306   0.152421919   0.010135795
C        0.491842521   0.242560667   0.008647992
C        0.580178752   0.164054694   0.006808044
C        0.746642403   0.248570879   0.004510411
C        0.833831688   0.167572039   0.002307833
C       -0.002408707   0.495089942   0.005281773
C        0.088468603   0.413709660   0.005221438
C        0.263003476   0.492964068   0.004780669
C        0.345734855   0.404578529   0.006714575
C        0.559042765   0.404661934   0.006273401
C        0.730096092   0.493034270   0.004313970
C        0.825361065   0.413783538   0.004872605
C       -0.005413734   0.742598373   0.006689558
C        0.080111147   0.660062198   0.007330150
C        0.248207569   0.742548838   0.007176289
C        0.336446383   0.660852202   0.002734416
C        0.495229936   0.760434142  -0.003468649
F        0.589515757   0.678812556  -0.026280100
C        0.765407440   0.760456979  -0.004274326
C        0.824641510   0.660964437   0.002122796
C        0.078212153   0.908573533   0.008069336
C        0.330643509   0.908584240   0.008318156
C        0.585384871   0.920158657  -0.001287933
C        0.834889094   0.920143484  -0.001125893
O        0.609457512   0.727457348   0.180373875
O        0.508885084   0.741677619   0.224852192
H        0.843849592   0.620926272   0.219402056
K_POINTS automatic 
  4 4 1   0 0 0 

