 &CONTROL
                 calculation = 'bands' ,
                      outdir = './tmp/' ,
                  pseudo_dir = '/home/deleted/pseudo_psl' ,
                      prefix = 'GCl_op' ,
                   verbosity = 'high' ,
               etot_conv_thr = 1.0D-5 ,
               forc_conv_thr = 4.0D-4 ,
                       nstep = 1000 ,
                    dipfield = .true. ,
 /
 &SYSTEM
                       ibrav = 4,
                           A = 9.88 ,
                           C = 15 ,
                         nat = 33,
                        ntyp = 3,
                     ecutwfc = 40.424239707 ,
                     ecutrho = 404.24239707 ,
                 occupations = 'tetrahedra' ,
                     degauss = 0.01 ,
				   input_dft = 'vdW-DF' ,
 /
 &ELECTRONS
            electron_maxstep = 50001,
                    conv_thr = 1.0D-6 ,
                 mixing_mode = 'local-TF' ,
                 mixing_beta = 0.5 ,
 /
ATOMIC_SPECIES
    C   12.01100  C.revpbe-n-kjpaw_psl.0.1.UPF 
   Cl   35.45200  Cl.revpbe-n-kjpaw_psl.0.3.0.UPF 
    O   15.99940  O.revpbe-n-kjpaw_psl.0.1.UPF 
ATOMIC_POSITIONS crystal 
C        0.002377460   0.002321906  -0.003888878
C        0.248379027  -0.003241946  -0.011987726
C        0.499944447   0.002321906  -0.003888878
C        0.753492953   0.006985907   0.013879270
C        0.003542141   0.252805775  -0.003258462
C        0.085517016   0.168623279  -0.007380545
C        0.252697891   0.248858646  -0.011633762
C        0.329906280   0.159812559  -0.013441416
C        0.496160755   0.248858646  -0.011633762
C        0.583106261   0.168623279  -0.007380545
C        0.749263634   0.252805775  -0.003258462
C        0.835286032   0.170572066   0.002196942
C        0.000281068   0.500562137  -0.004696734
C        0.089389121   0.418318586  -0.004079245
C        0.262605149   0.499173908  -0.002133895
C        0.343044317   0.410771184  -0.007924983
C        0.567726866   0.410771184  -0.007924983
C        0.736568759   0.499173908  -0.002133895
C        0.828929465   0.418318586  -0.004079245
C       -0.002143029   0.748635699  -0.006784726
C        0.082742274   0.665484549  -0.008801849
C        0.250778728   0.748635699  -0.006784726
C        0.337493659   0.667792933   0.004626330
C        0.495988687   0.762062990   0.023831411
Cl       0.589112204   0.678224410   0.089016548
C        0.766074304   0.762062990   0.023831411
C        0.830299273   0.667792933   0.004626330
C        0.081309688   0.914797035  -0.008355547
C        0.333487346   0.914797035  -0.008355547
C        0.585253011   0.923620835   0.012869960
C        0.838367823   0.923620835   0.012869960
O        0.553560102   0.476350719   0.214363157
O        0.422790617   0.476350719   0.214363157
K_POINTS crystal_b 
4
0.0000000000    0.0000000000    0.0000000000 17
0.0000000000    0.5000000000    0.0000000000 10
0.3333333333    0.3333333333    0.0000000000 20
0.0000000000    0.0000000000    0.0000000000 1

