 &CONTROL
                 calculation = 'nscf' ,
                      outdir = './tmp/' ,
                  pseudo_dir = '/home/deleted/pseudo_psl' ,
                      prefix = 'GI_op' ,
                   verbosity = 'high' ,
               etot_conv_thr = 1.0D-5 ,
               forc_conv_thr = 4.0D-4 ,
                       nstep = 1000 ,
                    dipfield = .true. ,
 /
 &SYSTEM
                       ibrav = 4,
                           A = 9.88 ,
                           C = 15 ,
                         nat = 33,
                        ntyp = 3,
                     ecutwfc = 40.424239707 ,
                     ecutrho = 404.24239707 ,
                 occupations = 'tetrahedra' ,
                     degauss = 0.01 ,
				   input_dft = 'vdW-DF' ,
 /
 &ELECTRONS
            electron_maxstep = 50001,
                    conv_thr = 1.0D-6 ,
                 mixing_mode = 'local-TF' ,
                 mixing_beta = 0.5 ,
 /
ATOMIC_SPECIES
    C   12.01100  C.revpbe-n-kjpaw_psl.0.1.UPF 
    I  126.90400  I.revpbe-n-kjpaw_psl.0.2.UPF 
    O   15.99940  O.revpbe-n-kjpaw_psl.0.1.UPF 
ATOMIC_POSITIONS crystal 
C       -0.000989322  -0.000144413  -0.003516132
C        0.245191101  -0.010603295  -0.002896560
C        0.501824665  -0.000216370  -0.002485298
C        0.758122306   0.015202526  -0.002914276
C        0.008175199   0.256585118  -0.003116724
C        0.085467655   0.167085618  -0.003236563
C        0.252412025   0.243735536  -0.003300852
C        0.326326199   0.151659004  -0.002655032
C        0.492341936   0.243729047  -0.002431087
C        0.582624507   0.167043286  -0.002171723
C        0.749391264   0.256529782  -0.002454650
C        0.839250152   0.177455850  -0.002555534
C        0.001404315   0.501828068  -0.003774263
C        0.096677694   0.421295460  -0.003770316
C        0.274254666   0.499071331  -0.004329720
C        0.352507156   0.405759997  -0.003886064
C        0.554294911   0.405812714  -0.003236629
C        0.725740205   0.499080272  -0.003807226
C        0.825611319   0.421288069  -0.003333477
C       -0.012279179   0.745561765  -0.003965088
C        0.082974879   0.664999167  -0.003879489
C        0.258767617   0.745553478  -0.003704105
C        0.358622017   0.667726258  -0.004291964
C        0.530109333   0.761049862  -0.003924292
I        0.672053359   0.704581475   0.253378158
C        0.732077293   0.761145031  -0.004445394
C        0.810183430   0.667829610  -0.004411890
C        0.076284477   0.910331328  -0.003527005
C        0.335013121   0.910265069  -0.002916594
C        0.592124705   0.923148219  -0.002995816
C        0.832081132   0.923177792  -0.003845240
O        0.415347788   0.634805462   0.210623491
O        0.312678740   0.490961226   0.204444018
K_POINTS automatic 
  20 20 1   0 0 0 

