 &CONTROL
                 calculation = 'bands' ,
                      outdir = './tmp/' ,
                  pseudo_dir = '/home/deleted/pseudo_psl' ,
                      prefix = 'GCl_op' ,
                   verbosity = 'high' ,
               etot_conv_thr = 1.0D-5 ,
               forc_conv_thr = 4.0D-4 ,
                       nstep = 1000 ,
                    dipfield = .true. ,
 /
 &SYSTEM
                       ibrav = 4,
                           A = 9.88 ,
                           C = 15 ,
                         nat = 34,
                        ntyp = 4,
                     ecutwfc = 40.424239707 ,
                     ecutrho = 404.24239707 ,
                 occupations = 'tetrahedra' ,
                     degauss = 0.01 ,
				   input_dft = 'vdW-DF' ,
    nspin = 2 ,
    starting_magnetization(1) = 0.5,
    starting_magnetization(2) = 0.5,
    starting_magnetization(3) = 0.5,
 /
 &ELECTRONS
            electron_maxstep = 50001,
                    conv_thr = 1.0D-6 ,
                 mixing_mode = 'local-TF' ,
                 mixing_beta = 0.5 ,
 /
ATOMIC_SPECIES
    C   12.01100  C.revpbe-n-kjpaw_psl.0.1.UPF 
   Cl   35.45200  Cl.revpbe-n-kjpaw_psl.0.3.0.UPF 
    O   15.99940  O.revpbe-n-kjpaw_psl.0.1.UPF 
    H   1.008000  H.revpbe-kjpaw_psl.0.1.UPF
ATOMIC_POSITIONS (crystal)
C       -0.001971182   0.011317371   0.003328412
C        0.244265937   0.000977116   0.003380788
C        0.500853183   0.011309787   0.003476420
C        0.757260035   0.026929954   0.003590893
C        0.007358492   0.268175533   0.002915543
C        0.084516934   0.178672676   0.003238820
C        0.251440828   0.255264873   0.003043927
C        0.325295388   0.163057026   0.003454828
C        0.491378315   0.255297283   0.003166040
C        0.581722789   0.178679889   0.003446773
C        0.748383705   0.268160120   0.003114967
C        0.838306482   0.189027322   0.003393919
C        0.000605474   0.513585789   0.002031262
C        0.095934068   0.432885032   0.002066989
C        0.273125009   0.510490820   0.001568099
C        0.351502725   0.417278283   0.002160131
C        0.553302335   0.417303894   0.002276025
C        0.724940741   0.510572677   0.001743095
C        0.824582306   0.432904581   0.002251073
C       -0.013389408   0.757068258   0.002249228
C        0.081979088   0.676369418   0.002086010
C        0.258013212   0.757086476   0.002242374
C        0.357605118   0.679400898   0.001729858
C        0.529272758   0.772633650   0.002491595
Cl       0.302313517   0.574109294   0.248820101
C        0.730989905   0.772657808   0.002358213
C        0.809372006   0.679424778   0.001651433
C        0.075209118   0.921827319   0.003061725
C        0.334182949   0.921810041   0.003081832
C        0.591199838   0.934713668   0.003357935
C        0.831091373   0.934713592   0.003199851
O        0.772906429   0.570357306   0.222283217
O        0.727298842   0.666487885   0.225657429
H        0.428852256   0.618334725   0.204034166
K_POINTS automatic 
  20 20 1   0 0 0 

