 &CONTROL
                 calculation = 'scf' ,
                      outdir = './tmp/' ,
                  pseudo_dir = '/home/deleted/pseudo_psl' ,
                      prefix = 'GF_op' ,
                   verbosity = 'high' ,
               etot_conv_thr = 1.0D-5 ,
               forc_conv_thr = 4.0D-4 ,
                       nstep = 1000 ,
                    dipfield = .true. ,
 /
 &SYSTEM
                       ibrav = 4,
                           A = 9.88 ,
                           C = 15 ,
                         nat = 32,
                        ntyp = 3,
                     ecutwfc = 40.424239707 ,
                     ecutrho = 404.24239707 ,
                 occupations = 'smearing' ,
                     degauss = 0.01 ,
				   input_dft = 'vdW-DF' ,
 /
 &ELECTRONS
            electron_maxstep = 50001,
                    conv_thr = 1.0D-6 ,
                 mixing_mode = 'local-TF' ,
                 mixing_beta = 0.5 ,
 /
ATOMIC_SPECIES
    C   12.01100  C.revpbe-n-kjpaw_psl.0.1.UPF 
    F   18.99800  F.revpbe-n-kjpaw_psl.0.1.UPF 
    O   15.99940  O.revpbe-n-kjpaw_psl.0.1.UPF 
ATOMIC_POSITIONS crystal 
C       -0.000233489  -0.005030385  -0.000531477
C        0.243276393  -0.013447216  -0.007729821
C        0.495203103  -0.005030385  -0.000531477
C        0.751371331   0.002742662   0.040722012
C       -0.000006036   0.246413992  -0.000369747
C        0.082948167   0.161318618  -0.002175844
C        0.248782131   0.239212168  -0.006577336
C        0.324425986   0.148851973  -0.007710791
C        0.490430038   0.239212168  -0.006577336
C        0.578370449   0.161318618  -0.002175844
C        0.746420027   0.246413992  -0.000369747
C        0.834282874   0.168565749   0.006981290
C       -0.003554505   0.492890989  -0.005803862
C        0.087637130   0.411356152  -0.005159898
C        0.262858350   0.490901602  -0.005530575
C        0.346192171   0.401939827  -0.006620743
C        0.555747655   0.401939827  -0.006620743
C        0.728043253   0.490901602  -0.005530575
C        0.823719021   0.411356152  -0.005159898
C       -0.007563752   0.739585352  -0.005779468
C        0.078736848   0.657473697  -0.007272291
C        0.247149104   0.739585352  -0.005779468
C        0.334705116   0.657879314  -0.002206368
C        0.494525146   0.759749248   0.007309228
F        0.587635540   0.675271081   0.027333557
C        0.765224102   0.759749248   0.007309228
C        0.823174197   0.657879314  -0.002206368
C        0.076424053   0.905901144  -0.005655686
C        0.329477090   0.905901144  -0.005655686
C        0.581725822   0.916376260   0.010854986
C        0.834650437   0.916376260   0.010854986
O        0.758222242   1.016444483   0.131699096
K_POINTS automatic 
  16 16 1   0 0 0 

