 &CONTROL
                 calculation = 'nscf' ,
                      outdir = './tmp/' ,
                  pseudo_dir = '/home/deleted/pseudo_psl' ,
                      prefix = 'GF_ip' ,
                   verbosity = 'high' ,
               etot_conv_thr = 1.0D-5 ,
               forc_conv_thr = 4.0D-4 ,
                       nstep = 1000 ,
                    dipfield = .true. ,
 /
 &SYSTEM
                       ibrav = 4,
                           A = 9.88 ,
                           C = 15 ,
                         nat = 33,
                        ntyp = 3,
                     ecutwfc = 40.424239707 ,
                     ecutrho = 404.24239707 ,
                 occupations = 'tetrahedra' ,
                     degauss = 0.01 ,
				   input_dft = 'vdW-DF' ,
    nspin = 2 ,
    starting_magnetization(1) = 0.5,
    starting_magnetization(2) = 0.5,
    starting_magnetization(3) = 0.5,
 /
 &ELECTRONS
            electron_maxstep = 50001,
                    conv_thr = 1.0D-6 ,
                 mixing_mode = 'local-TF' ,
                 mixing_beta = 0.5 ,
 /
ATOMIC_SPECIES
    C   12.01100  C.revpbe-n-kjpaw_psl.0.1.UPF 
    F   18.99800  F.revpbe-n-kjpaw_psl.0.1.UPF 
    O   15.99940  O.revpbe-n-kjpaw_psl.0.1.UPF 
ATOMIC_POSITIONS (crystal)
C        0.007456003   0.010919291   0.002567812
C        0.251342113   0.002684226   0.005537125
C        0.503463287   0.010919291   0.002567812
C        0.758343236   0.016686471  -0.004322321
C        0.008550133   0.261660542   0.001754057
C        0.090574230   0.177176496   0.003641179
C        0.257427047   0.255638198   0.004920928
C        0.332735239   0.165470478   0.006105282
C        0.498211151   0.255638198   0.004920928
C        0.586602266   0.177176496   0.003641179
C        0.753110408   0.261660542   0.001754057
C        0.840399669   0.180799338  -0.000203335
C        0.004068056   0.508136112   0.001581502
C        0.095111330   0.426904434   0.001627508
C        0.269633950   0.506135110   0.000833690
C        0.352585053   0.417718401   0.002612414
C        0.565133347   0.417718401   0.002612414
C        0.736501160   0.506135110   0.000833690
C        0.831793102   0.426904434   0.001627508
C        0.001035519   0.755622641   0.002518439
C        0.086580334   0.673160670   0.002822750
C        0.254587121   0.755622641   0.002518439
C        0.342830660   0.673959010  -0.001150759
C        0.501827402   0.773610492  -0.005989874
F        0.595981515   0.691963031  -0.028431228
C        0.771783090   0.773610492  -0.005989874
C        0.831128349   0.673959010  -0.001150759
C        0.084673729   0.921704025   0.003925557
C        0.337030294   0.921704025   0.003925557
C        0.591933460   0.933328355  -0.003663373
C        0.841394894   0.933328355  -0.003663373
O        0.623556625   0.747113249   0.174086633
O        0.559282889   0.618565777   0.215628438
K_POINTS automatic 
  20 20 1   0 0 0 

