 &CONTROL
                 calculation = 'bands' ,
                      outdir = './tmp/' ,
                  pseudo_dir = '/home/deleted/pseudo_psl' ,
                      prefix = 'GCl_ip' ,
                   verbosity = 'high' ,
               etot_conv_thr = 1.0D-5 ,
               forc_conv_thr = 4.0D-4 ,
                       nstep = 1000 ,
                    dipfield = .true. ,
 /
 &SYSTEM
                       ibrav = 4,
                           A = 9.88 ,
                           C = 15 ,
                         nat = 34,
                        ntyp = 4,
                     ecutwfc = 40.424239707 ,
                     ecutrho = 404.24239707 ,
                 occupations = 'tetrahedra' ,
                     degauss = 0.01 ,
				   input_dft = 'vdW-DF' ,
 /
 &ELECTRONS
            electron_maxstep = 50001,
                    conv_thr = 1.0D-6 ,
                 mixing_mode = 'local-TF' ,
                 mixing_beta = 0.5 ,
 /
ATOMIC_SPECIES
    C   12.01100  C.revpbe-n-kjpaw_psl.0.1.UPF 
   Cl   35.45200  Cl.revpbe-n-kjpaw_psl.0.3.0.UPF 
    O   15.99940  O.revpbe-n-kjpaw_psl.0.1.UPF 
    H   1.008000  H.revpbe-kjpaw_psl.0.1.UPF
ATOMIC_POSITIONS crystal 
C       -0.005303343   0.017030086   0.004965726
C        0.243548186   0.015088068  -0.007841964
C        0.493441374   0.016664597   0.007234458
C        0.746293016   0.020686746   0.016845227
C       -0.004053890   0.267662976   0.005255889
C        0.077517161   0.182749191  -0.001404878
C        0.240797065   0.262217174  -0.021861692
C        0.327195837   0.179525562  -0.023700726
C        0.496191635   0.261546172  -0.022040250
C        0.576995036   0.180939878   0.002561156
C        0.744489155   0.267222474   0.010394309
C        0.829065769   0.185150693   0.011597228
C       -0.007206139   0.516248234   0.009859253
C        0.078367379   0.433840072   0.004500265
C        0.246138845   0.517198562  -0.006664490
C        0.309026514   0.424145547  -0.033831874
C        0.593641465   0.422537032  -0.036224866
C        0.729779761   0.511498141   0.025207855
C        0.827037395   0.431764292   0.013163779
C       -0.009384923   0.766033875   0.007089568
C        0.076708927   0.683251747   0.006393870
C        0.244532491   0.765912617   0.005073630
C        0.333117743   0.684265862   0.005854975
C        0.498322944   0.772822298   0.019125192
Cl       0.491170418   0.499277783  -0.094841046
C        0.746211505   0.773693828   0.021717047
C        0.822260120   0.686393794   0.014396701
C        0.076251013   0.932389560   0.000793595
C        0.326822504   0.932087222   0.001607944
C        0.578990893   0.936318331   0.017034481
C        0.829410280   0.937777259   0.015575027
O        0.584021333   0.698156099   0.036818510
O        0.666092317   0.478928648   0.119806354
H        0.756329899   0.525479608   0.159644788
K_POINTS crystal_b 
4
0.0000000000    0.0000000000    0.0000000000 17
0.0000000000    0.5000000000    0.0000000000 10
0.3333333333    0.3333333333    0.0000000000 20
0.0000000000    0.0000000000    0.0000000000 1

