 &CONTROL
                 calculation = 'nscf' ,
                      outdir = './tmp/' ,
                  pseudo_dir = '/home/deleted/pseudo_psl' ,
                      prefix = 'GBr_ip' ,
                   verbosity = 'high' ,
               etot_conv_thr = 1.0D-5 ,
               forc_conv_thr = 4.0D-4 ,
                       nstep = 1000 ,
                    dipfield = .true. ,
 /
 &SYSTEM
                       ibrav = 4,
                           A = 9.88 ,
                           C = 15 ,
                         nat = 34,
                        ntyp = 4,
                     ecutwfc = 40.424239707 ,
                     ecutrho = 404.24239707 ,
                 occupations = 'tetrahedra' ,
                     degauss = 0.01 ,
				   input_dft = 'vdW-DF' ,
 /
 &ELECTRONS
            electron_maxstep = 50001,
                    conv_thr = 1.0D-6 ,
                 mixing_mode = 'local-TF' ,
                 mixing_beta = 0.5 ,
 /
ATOMIC_SPECIES
    C   12.01100  C.revpbe-n-kjpaw_psl.0.1.UPF 
   Br   79.90350  Br.revpbe-n-kjpaw_psl.0.2.UPF 
    O   15.99940  O.revpbe-n-kjpaw_psl.0.1.UPF 
    H   1.008000  H.revpbe-kjpaw_psl.0.1.UPF
ATOMIC_POSITIONS crystal 
C       -0.005224141   0.007541948   0.002424486
C        0.247351590   0.014286576   0.004200373
C        0.493225385   0.007566741   0.002046396
C        0.741213837   0.001834626  -0.002301206
C       -0.009108863   0.254321359   0.006487155
C        0.076711442   0.174530993   0.002597971
C        0.244554587   0.261961816  -0.002986645
C        0.330342770   0.180227882  -0.002603742
C        0.497931069   0.262020790  -0.003381510
C        0.578317064   0.174560820   0.002001755
C        0.743913178   0.254330368   0.006080993
C        0.824135725   0.167771961   0.004451371
C       -0.006278659   0.506967172   0.014160818
C        0.071324934   0.420898813   0.010646785
C        0.234647155   0.506003339   0.003833018
C        0.312795172   0.425657670  -0.006452354
C        0.593462178   0.425651436  -0.006633032
C        0.751944939   0.506067499   0.003479450
C        0.830072597   0.420897451   0.010280552
C        0.000198985   0.761171534   0.010294302
C        0.077742114   0.675074649   0.013994929
C        0.241386709   0.761156546   0.010338317
C        0.319671906   0.675932996   0.003987444
C        0.478279140   0.756351422  -0.005739923
Br       0.535761638   0.590865663  -0.027832966
C        0.758729309   0.756411516  -0.005843478
C        0.836786834   0.675953589   0.003803509
C        0.080580224   0.927702721   0.006150029
C        0.327553099   0.927700891   0.005957105
C        0.573671701   0.920119644  -0.002899450
C        0.826967312   0.920064159  -0.002791950
O        0.530891472   0.571192895   0.137791519
O        0.611617994   0.722584772   0.179119672
H        0.525436486   0.738301963   0.198046510
K_POINTS automatic 
  20 20 1   0 0 0 

