 &CONTROL
                 calculation = 'scf' ,
                      outdir = './tmp_subs/' ,
                  pseudo_dir = '/home/deleted/pseudo_psl' ,
                      prefix = 'GCl_op_subs' ,
                   verbosity = 'high' ,
               etot_conv_thr = 1.0D-5 ,
               forc_conv_thr = 4.0D-4 ,
                       nstep = 1000 ,
                    dipfield = .true. ,
 /
 &SYSTEM
                       ibrav = 4,
                           A = 9.88 ,
                           C = 15 ,
                         nat = 31,
                        ntyp = 2,
                     ecutwfc = 40.424239707 ,
                     ecutrho = 404.24239707 ,
                 occupations = 'smearing' ,
                     degauss = 0.01 ,
				   input_dft = 'vdW-DF' ,
 /
 &ELECTRONS
            electron_maxstep = 50001,
                    conv_thr = 1.0D-6 ,
                 mixing_mode = 'local-TF' ,
                 mixing_beta = 0.5 ,
 /
ATOMIC_SPECIES
    C   12.01100  C.revpbe-n-kjpaw_psl.0.1.UPF 
   Cl   35.45200  Cl.revpbe-n-kjpaw_psl.0.3.0.UPF 
ATOMIC_POSITIONS crystal 
C        0.004753832   0.006824695  -0.003382316
C        0.249817553  -0.000364893  -0.011718229
C        0.502070863   0.006824695  -0.003382316
C        0.756034721   0.012069442   0.015475667
C        0.005989094   0.257312626  -0.001938729
C        0.088131970   0.173056530  -0.006917208
C        0.255247409   0.252567511  -0.011509932
C        0.331487272   0.162974544  -0.013826727
C        0.497320102   0.252567511  -0.011509932
C        0.584924560   0.173056530  -0.006917208
C        0.751323532   0.257312626  -0.001938729
C        0.837950918   0.175901838   0.003676061
C        0.002163387   0.504326774  -0.002762123
C        0.092287680   0.422659268  -0.002406424
C        0.266139212   0.503395136  -0.000600642
C        0.348895237   0.414800318  -0.006364234
C        0.565905080   0.414800318  -0.006364234
C        0.737255924   0.503395136  -0.000600642
C        0.830371587   0.422659268  -0.002406424
C       -0.000445893   0.752170438  -0.004975078
C        0.084655964   0.669311929  -0.006700681
C        0.252616331   0.752170438  -0.004975078
C        0.339267253   0.670953532   0.006361253
C        0.498033765   0.767364817   0.025371378
Cl       0.593969749   0.687939501   0.089610807
C        0.769331053   0.767364817   0.025371378
C        0.831686278   0.670953532   0.006361253
C        0.083080548   0.918358159  -0.007502199
C        0.335277610   0.918358159  -0.007502199
C        0.587963029   0.928908737   0.014242851
C        0.840945708   0.928908737   0.014242851
K_POINTS automatic 
  16 16 1   0 0 0 

