 &CONTROL
                 calculation = 'scf' ,
                      outdir = './tmp/' ,
                  pseudo_dir = '/home/deleted/pseudo_psl' ,
                      prefix = 'GCl_op' ,
                   verbosity = 'high' ,
               etot_conv_thr = 1.0D-5 ,
               forc_conv_thr = 4.0D-4 ,
                       nstep = 1000 ,
                    dipfield = .true. ,
 /
 &SYSTEM
                       ibrav = 4,
                           A = 9.88 ,
                           C = 15 ,
                         nat = 34,
                        ntyp = 4,
                     ecutwfc = 40.424239707 ,
                     ecutrho = 404.24239707 ,
                 occupations = 'smearing' ,
                     degauss = 0.01 ,
				   input_dft = 'vdW-DF' ,
 /
 &ELECTRONS
            electron_maxstep = 50001,
                    conv_thr = 1.0D-6 ,
                 mixing_mode = 'local-TF' ,
                 mixing_beta = 0.5 ,
 /
ATOMIC_SPECIES
    C   12.01100  C.revpbe-n-kjpaw_psl.0.1.UPF 
   Cl   35.45200  Cl.revpbe-n-kjpaw_psl.0.3.0.UPF 
    O   15.99940  O.revpbe-n-kjpaw_psl.0.1.UPF 
    H   1.008000  H.revpbe-kjpaw_psl.0.1.UPF
ATOMIC_POSITIONS crystal 
C        0.012638292  -0.003567606  -0.006379810
C        0.258767655  -0.009186072  -0.013641661
C        0.510334977  -0.003742554  -0.004750319
C        0.763988733   0.001104126   0.012183350
C        0.014188515   0.247060733  -0.005330790
C        0.096030372   0.162766130  -0.009578520
C        0.263308342   0.243181963  -0.014128177
C        0.340249046   0.153750821  -0.015587024
C        0.506511467   0.242918179  -0.013590080
C        0.593515132   0.162610824  -0.008811652
C        0.759644586   0.247052878  -0.004556272
C        0.845677431   0.164617628   0.000664668
C        0.010880021   0.494915440  -0.006407648
C        0.100260463   0.412552644  -0.006036828
C        0.273563604   0.493595943  -0.003795172
C        0.354053131   0.405053127  -0.010606444
C        0.577433566   0.404919823  -0.010430305
C        0.746721408   0.493643266  -0.004880520
C        0.839132389   0.412516709  -0.005850839
C        0.008060806   0.742785737  -0.008888091
C        0.093263155   0.659640130  -0.010381265
C        0.261663396   0.742821283  -0.008088531
C        0.348133210   0.661994060   0.004111038
C        0.505626547   0.756209792   0.026396351
Cl       0.596579131   0.672993518   0.091204881
C        0.772630119   0.754762096   0.017886874
C        0.840066872   0.662421318   0.000983548
C        0.091570507   0.908824120  -0.010552940
C        0.343981090   0.908884613  -0.009400798
C        0.595462860   0.917476271   0.012990410
C        0.848239043   0.916990008   0.009284085
O        0.394427189   0.587699867   0.186190331
O        0.391860626   0.444608943   0.214732614
H        0.418753371   0.466951555   0.277789421
K_POINTS automatic 
  16 16 1   0 0 0 

