 &CONTROL
                 calculation = 'bands' ,
                      outdir = './tmp/' ,
                  pseudo_dir = '/home/deleted/pseudo_psl' ,
                      prefix = 'GF_op' ,
                   verbosity = 'high' ,
               etot_conv_thr = 1.0D-5 ,
               forc_conv_thr = 4.0D-4 ,
                       nstep = 1000 ,
                    dipfield = .true. ,
 /
 &SYSTEM
                       ibrav = 4,
                           A = 9.88 ,
                           C = 15 ,
                         nat = 34,
                        ntyp = 4,
                     ecutwfc = 40.424239707 ,
                     ecutrho = 404.24239707 ,
                 occupations = 'tetrahedra' ,
                     degauss = 0.01 ,
				   input_dft = 'vdW-DF' ,
    nspin = 2 ,
    starting_magnetization(1) = 0.5,
    starting_magnetization(2) = 0.5,
    starting_magnetization(3) = 0.5,
 /
 &ELECTRONS
            electron_maxstep = 50001,
                    conv_thr = 1.0D-6 ,
                 mixing_mode = 'local-TF' ,
                 mixing_beta = 0.5 ,
 /
ATOMIC_SPECIES
    C   12.01100  C.revpbe-n-kjpaw_psl.0.1.UPF 
    F   18.99800  F.revpbe-n-kjpaw_psl.0.1.UPF 
    O   15.99940  O.revpbe-n-kjpaw_psl.0.1.UPF 
    H   1.008000  H.revpbe-kjpaw_psl.0.1.UPF
ATOMIC_POSITIONS (crystal)
C       -0.018631642   0.000087899   0.008722591
C        0.231928454  -0.007019090   0.016736558
C        0.481230414  -0.003683858   0.008815990
C        0.731049924  -0.000836734  -0.001350555
C       -0.017159839   0.248237907  -0.001441303
C        0.065029954   0.163888972   0.007200095
C        0.233877472   0.245410779   0.008426846
C        0.310503613   0.154239488   0.008576331
C        0.476242675   0.243633405   0.000994924
C        0.562733128   0.162695127   0.000288260
C        0.728804718   0.247148586  -0.002438708
C        0.815001609   0.165596463  -0.003027467
C       -0.020804953   0.494505647  -0.000096737
C        0.068882630   0.413716394   0.000611965
C        0.243614226   0.496794778   0.009609452
C        0.325686833   0.406340890   0.005958114
C        0.546406995   0.406193945  -0.002692710
C        0.715991160   0.494329511  -0.007614274
C        0.808381474   0.412945696  -0.003799672
C       -0.023373022   0.739774918   0.008148946
C        0.061550413   0.660494340   0.008164526
C        0.230194676   0.742598297   0.016581245
C        0.314639272   0.661475469   0.021857455
C        0.481433566   0.754325741   0.047496111
F        0.614867161   0.693273916  -0.077549641
C        0.750031097   0.759248236  -0.029293372
C        0.812936133   0.663064777  -0.009751490
C        0.059753272   0.909116774   0.035850321
C        0.313734240   0.910236901   0.016360024
C        0.567319267   0.917501022   0.013463761
C        0.819055130   0.918844600  -0.007825434
O        1.054146865   0.906159500   0.136991057
O        0.542059793   0.700459246   0.098316337
H        0.943841041   0.853125126   0.154146014
K_POINTS automatic 
  20 20 1   0 0 0 

