 &CONTROL
                 calculation = 'nscf' ,
                      outdir = './tmp/' ,
                  pseudo_dir = '/home/deleted/pseudo_psl' ,
                      prefix = 'GI_ip' ,
                   verbosity = 'high' ,
               etot_conv_thr = 1.0D-5 ,
               forc_conv_thr = 4.0D-4 ,
                       nstep = 1000 ,
                    dipfield = .true. ,
 /
 &SYSTEM
                       ibrav = 4,
                           A = 9.88 ,
                           C = 15 ,
                         nat = 32,
                        ntyp = 3,
                     ecutwfc = 40.424239707 ,
                     ecutrho = 404.24239707 ,
                 occupations = 'tetrahedra' ,
                     degauss = 0.01 ,
				   input_dft = 'vdW-DF' ,
 /
 &ELECTRONS
            electron_maxstep = 50001,
                    conv_thr = 1.0D-6 ,
                 mixing_mode = 'local-TF' ,
                 mixing_beta = 0.5 ,
 /
ATOMIC_SPECIES
    C   12.01100  C.revpbe-n-kjpaw_psl.0.1.UPF 
    I  126.90400  I.revpbe-n-kjpaw_psl.0.2.UPF 
    O   15.99940  O.revpbe-n-kjpaw_psl.0.1.UPF 
ATOMIC_POSITIONS crystal 
C        0.002427925   0.002798539   0.004628612
C        0.254937403   0.009874805   0.008306829
C        0.500370614   0.002798539   0.004628612
C        0.748323487  -0.003353026  -0.004873354
C       -0.002310341   0.248652745   0.010935469
C        0.083591742   0.169241041   0.004629817
C        0.249621408   0.255739859  -0.006815754
C        0.337697185   0.175394371  -0.004868189
C        0.506118451   0.255739859  -0.006815754
C        0.585649297   0.169241041   0.004629817
C        0.750963085   0.248652745   0.010935469
C        0.831081659   0.162163319   0.008304394
C        0.001000189   0.502000378   0.022782665
C        0.078688801   0.415828980   0.015815129
C        0.239297353   0.500800838  -0.000368121
C        0.315719409   0.418267942  -0.017402517
C        0.602548532   0.418267942  -0.017402517
C        0.761503485   0.500800838  -0.000368121
C        0.837140178   0.415828980   0.015815129
C        0.007331396   0.756206427   0.015815384
C        0.085020356   0.670040712   0.022782765
C        0.248875032   0.756206427   0.015815384
C        0.324514786   0.671239107  -0.000369160
C        0.483474602   0.753775010  -0.017406881
I        0.543008695   0.586017390  -0.058982472
C        0.770300408   0.753775010  -0.017406881
C        0.846724320   0.671239107  -0.000369160
C        0.088332729   0.923389804   0.010936115
C        0.335057076   0.923389804   0.010936115
C        0.579899905   0.916300046  -0.006820160
C        0.836400140   0.916300046  -0.006820160
O        0.543030826   0.586061652   0.079391496
K_POINTS automatic 
  20 20 1   0 0 0 

