 &CONTROL
                 calculation = 'scf' ,
                      outdir = './tmp/' ,
                  pseudo_dir = '/home/deleted/pseudo_psl' ,
                      prefix = 'GBr_ip' ,
                   verbosity = 'high' ,
               etot_conv_thr = 1.0D-5 ,
               forc_conv_thr = 4.0D-4 ,
                       nstep = 1000 ,
                    dipfield = .true. ,
 /
 &SYSTEM
                       ibrav = 4,
                           A = 9.88 ,
                           C = 15 ,
                         nat = 32,
                        ntyp = 3,
                     ecutwfc = 40.424239707 ,
                     ecutrho = 404.24239707 ,
                 occupations = 'smearing' ,
                     degauss = 0.01 ,
				   input_dft = 'vdW-DF' ,
    nspin = 2 ,
    starting_magnetization(1) = 0.5,
    starting_magnetization(2) = 0.5,
    starting_magnetization(3) = 0.5,
 /
 &ELECTRONS
            electron_maxstep = 50001,
                    conv_thr = 1.0D-6 ,
                 mixing_mode = 'local-TF' ,
                 mixing_beta = 0.5 ,
 /
ATOMIC_SPECIES
    C   12.01100  C.revpbe-n-kjpaw_psl.0.1.UPF 
   Br   79.90350  Br.revpbe-n-kjpaw_psl.0.2.UPF 
    O   15.99940  O.revpbe-n-kjpaw_psl.0.1.UPF 
ATOMIC_POSITIONS (crystal)
C        0.005840226   0.010170205  -0.000367309
C        0.258548333   0.017096666   0.002073922
C        0.504329980   0.010170205  -0.000367309
C        0.752256005   0.004512010  -0.005720025
C        0.002019090   0.257073323   0.004227581
C        0.087900746   0.177376505  -0.000304339
C        0.255881849   0.264872486  -0.006547846
C        0.341490717   0.182981435  -0.005749661
C        0.508990638   0.264872486  -0.006547846
C        0.589475758   0.177376505  -0.000304339
C        0.755054232   0.257073323   0.004227581
C        0.835201627   0.170403254   0.002217306
C        0.004881622   0.509763246   0.013199536
C        0.082475386   0.423623223   0.008842683
C        0.245701972   0.508786888   0.000230694
C        0.323624683   0.428609821  -0.011332321
C        0.604985136   0.428609821  -0.011332321
C        0.763084917   0.508786888   0.000230694
C        0.841147836   0.423623223   0.008842683
C        0.011288017   0.763935300   0.008677020
C        0.088927297   0.677854594   0.013092781
C        0.252647284   0.763935300   0.008677020
C        0.330652886   0.678695743   0.000178687
C        0.488752432   0.758870237  -0.011354427
Br       0.546859130   0.593718261  -0.035339996
C        0.770117805   0.758870237  -0.011354427
C        0.848042855   0.678695743   0.000178687
C        0.091730134   0.930471689   0.004050733
C        0.338741555   0.930471689   0.004050733
C        0.584755964   0.922620841  -0.006582037
C        0.837864876   0.922620841  -0.006582037
O        0.546729008   0.593458014   0.136787901
K_POINTS automatic 
  16 16 1   0 0 0 

