 &CONTROL
                 calculation = 'nscf' ,
                      outdir = './tmp/' ,
                  pseudo_dir = '/home/deleted/pseudo_psl' ,
                      prefix = 'GCl_ip' ,
                   verbosity = 'high' ,
               etot_conv_thr = 1.0D-5 ,
               forc_conv_thr = 4.0D-4 ,
                       nstep = 1000 ,
                    dipfield = .true. ,
 /
 &SYSTEM
                       ibrav = 4,
                           A = 9.88 ,
                           C = 15 ,
                         nat = 33,
                        ntyp = 3,
                     ecutwfc = 40.424239707 ,
                     ecutrho = 404.24239707 ,
                 occupations = 'tetrahedra' ,
                     degauss = 0.01 ,
				   input_dft = 'vdW-DF' ,
    nspin = 2 ,
    starting_magnetization(1) = 0.5,
    starting_magnetization(2) = 0.5,
    starting_magnetization(3) = 0.5,
 /
 &ELECTRONS
            electron_maxstep = 50001,
                    conv_thr = 1.0D-6 ,
                 mixing_mode = 'local-TF' ,
                 mixing_beta = 0.5 ,
 /
ATOMIC_SPECIES
    C   12.01100  C.revpbe-n-kjpaw_psl.0.1.UPF 
   Cl   35.45200  Cl.revpbe-n-kjpaw_psl.0.3.0.UPF 
    O   15.99940  O.revpbe-n-kjpaw_psl.0.1.UPF 
ATOMIC_POSITIONS (crystal)
C        0.000779956   0.002013779  -0.006145093
C        0.253210200   0.008037245  -0.006209843
C        0.499585025   0.001904663  -0.007532737
C        0.747631965  -0.003132125  -0.007666099
C       -0.002398360   0.249435161  -0.006860900
C        0.083276901   0.169312277  -0.007067559
C        0.251715426   0.256979907  -0.007852207
C        0.336353560   0.174311162  -0.006736011
C        0.503639257   0.256864672  -0.005880131
C        0.584393579   0.169184742  -0.006075200
C        0.750188698   0.249386606  -0.005587727
C        0.830762657   0.163134531  -0.006596037
C       -0.000037628   0.501626135  -0.005299938
C        0.078230808   0.415962165  -0.007153280
C        0.242540668   0.500908314  -0.009555173
C        0.322709093   0.421418850  -0.010015221
C        0.596927826   0.421313503  -0.004761433
C        0.756567215   0.500861023  -0.003528053
C        0.836002848   0.415903145  -0.004220614
C        0.005688528   0.755297177  -0.004301203
C        0.083946658   0.669598818  -0.005351789
C        0.247866113   0.755256293  -0.007520443
C        0.327259476   0.670351117  -0.010130955
C        0.486869053   0.749857924  -0.011504760
Cl       0.541787993   0.585497548  -0.009357250
C        0.761252478   0.749908886  -0.005553926
C        0.841305068   0.670355388  -0.003771098
C        0.086384463   0.921816080  -0.005439703
C        0.333773265   0.921770177  -0.007082220
C        0.580331144   0.914240955  -0.009037667
C        0.832364932   0.914342220  -0.006593939
O        0.477933287   0.642954409   0.207680130
O        0.612160071   0.759693594   0.202708077
K_POINTS automatic 
  20 20 1   0 0 0 

