 &CONTROL
                 calculation = 'relax' ,
                      outdir = './tmp/' ,
                  pseudo_dir = '/home/deleted/pseudo_psl' ,
                      prefix = 'GI_ip' ,
                   verbosity = 'high' ,
               etot_conv_thr = 1.0D-5 ,
               forc_conv_thr = 4.0D-4 ,
                       nstep = 1000 ,
                    dipfield = .true. ,
 /
 &SYSTEM
                       ibrav = 4,
                           A = 9.88 ,
                           C = 15 ,
                         nat = 34,
                        ntyp = 4,
                     ecutwfc = 40.424239707 ,
                     ecutrho = 404.24239707 ,
                 occupations = 'smearing' ,
                     degauss = 0.01 ,
				   input_dft = 'vdW-DF' ,
    nspin = 2 ,
    starting_magnetization(1) = 0.5,
    starting_magnetization(2) = 0.5,
    starting_magnetization(3) = 0.5,
	starting_magnetization(4) = 0.5,
 /
 &ELECTRONS
            electron_maxstep = 50001,
                    conv_thr = 1.0D-6 ,
                 mixing_mode = 'local-TF' ,
                 mixing_beta = 0.5 ,
 /
 &IONS
                ion_dynamics = 'bfgs' ,
 /
ATOMIC_SPECIES
    C   12.01100  C.revpbe-n-kjpaw_psl.0.1.UPF 
    I  126.90400  I.revpbe-n-kjpaw_psl.0.2.UPF 
    O   15.99940  O.revpbe-n-kjpaw_psl.0.1.UPF 
    H   1.008000  H.revpbe-kjpaw_psl.0.1.UPF
ATOMIC_POSITIONS (crystal)
C        0.001416136   0.001188544  -0.003979307
C        0.254059476   0.008118952  -0.007255704
C        0.499772409   0.001188544  -0.003979307
C        0.748074909  -0.003850182   0.005311119
C       -0.002499101   0.248045977  -0.010510496
C        0.083335434   0.168374602  -0.003526468
C        0.250331641   0.254883177   0.007291877
C        0.336645971   0.173291943   0.006099923
C        0.504551536   0.254883177   0.007291877
C        0.585039168   0.168374602  -0.003526468
C        0.750545077   0.248045977  -0.010510496
C        0.830690584   0.161381169  -0.007049115
C        0.000362783   0.500725567  -0.026535830
C        0.078169326   0.414666584  -0.018655534
C        0.240275093   0.499522876  -0.004167782
C        0.316113500   0.418443245   0.015344352
C        0.602329744   0.418443245   0.015344352
C        0.759247783   0.499522876  -0.004167782
C        0.836497257   0.414666584  -0.018655534
C        0.006577511   0.754852977  -0.019290091
C        0.084384544   0.668769088  -0.026809743
C        0.248275467   0.754852977  -0.019290091
C        0.325560737   0.669980887  -0.004781466
C        0.482653145   0.751228446   0.013793760
I        0.542881298   0.585762596   0.063293716
C        0.768575301   0.751228446   0.013793760
C        0.844420150   0.669980887  -0.004781466
C        0.087249458   0.921496355  -0.011120252
C        0.334246897   0.921496355  -0.011120252
C        0.580289124   0.914702366   0.006197723
C        0.834413240   0.914702366   0.006197723
O        0.740508844   0.852181065   0.229876502
O        0.611672223   0.852181065   0.229876502
H        0.676090534   0.98047041    0.283353266
K_POINTS automatic 
  4 4 1   0 0 0 

