 &CONTROL
                 calculation = 'nscf' ,
                      outdir = './tmp/' ,
                  pseudo_dir = '/home/deleted/pseudo_psl' ,
                      prefix = 'GBr_ip' ,
                   verbosity = 'high' ,
               etot_conv_thr = 1.0D-5 ,
               forc_conv_thr = 4.0D-4 ,
                       nstep = 1000 ,
                    dipfield = .true. ,
 /
 &SYSTEM
                       ibrav = 4,
                           A = 9.88 ,
                           C = 15 ,
                         nat = 34,
                        ntyp = 4,
                     ecutwfc = 40.424239707 ,
                     ecutrho = 404.24239707 ,
                 occupations = 'tetrahedra' ,
                     degauss = 0.01 ,
				   input_dft = 'vdW-DF' ,
    nspin = 2 ,
    starting_magnetization(1) = 0.5,
    starting_magnetization(2) = 0.5,
    starting_magnetization(3) = 0.5,
 /
 &ELECTRONS
            electron_maxstep = 50001,
                    conv_thr = 1.0D-6 ,
                 mixing_mode = 'local-TF' ,
                 mixing_beta = 0.5 ,
 /
ATOMIC_SPECIES
    C   12.01100  C.revpbe-n-kjpaw_psl.0.1.UPF 
   Br   79.90350  Br.revpbe-n-kjpaw_psl.0.2.UPF 
    O   15.99940  O.revpbe-n-kjpaw_psl.0.1.UPF 
    H   1.008000  H.revpbe-kjpaw_psl.0.1.UPF
ATOMIC_POSITIONS (crystal)
C        0.008115511   0.016388817   0.002062866
C        0.257142143   0.014995335   0.007114496
C        0.507230397   0.016084744   0.012080372
C        0.758728414   0.018525316   0.006553239
C        0.007430803   0.266251011   0.010327814
C        0.090021939   0.182453578   0.009012879
C        0.255038053   0.263088520   0.021516513
C        0.340223132   0.181292497   0.007165952
C        0.506646692   0.262633993  -0.008481782
C        0.591245041   0.181996681   0.005287560
C        0.757564039   0.266203578   0.003721704
C        0.841128199   0.183419885   0.006964908
C        0.007421215   0.516180271   0.006996337
C        0.090910997   0.432393096   0.014268178
C        0.256493605   0.513017471   0.030529197
C        0.322925725   0.419175964   0.053524091
C        0.595515094   0.418101766  -0.040909465
C        0.755358665   0.513400381  -0.018456680
C        0.840218607   0.432529969  -0.000133004
C        0.005369664   0.765235796  -0.000588051
C        0.090789774   0.682506202   0.006574220
C        0.259154502   0.764994095   0.013206500
C        0.345389699   0.681934887   0.022449849
C        0.511553362   0.770757201   0.013657203
Br       0.506160224   0.474320795  -0.140478519
C        0.758434402   0.771014905  -0.003490197
C        0.836343038   0.682371442  -0.011231225
C        0.089656878   0.931527697   0.004019917
C        0.340961879   0.931339107   0.009463256
C        0.592242499   0.934795273   0.011413743
C        0.841803178   0.934974616   0.001626278
O        0.448589949   0.481010942   0.109693970
O        0.596800781   0.694883610   0.001812520
H        0.487655764   0.408301857   0.115866986
K_POINTS automatic 
  20 20 1   0 0 0 

