&CONTROL
	calculation = 'scf' ,
	outdir = './tmp/' ,
	pseudo_dir = '/home/deleted/pseudo_psl' ,
	prefix = 'GF_op' ,
	verbosity = 'high' ,
	etot_conv_thr = 1.0D-5 ,
	forc_conv_thr = 4.0D-4 ,
	nstep = 1000 ,
	dipfield = .true. ,
/
&SYSTEM
	ibrav = 4,
	A = 9.88 ,
	C = 15 ,
	nat = 31,
	ntyp = 2,
	ecutwfc = 40.424239707 ,
	ecutrho = 404.24239707 ,
	occupations = 'smearing' ,
	degauss = 0.01 ,
	input_dft = 'vdW-DF' ,
    nspin = 2 ,
    starting_magnetization(1) = 0.5,
    starting_magnetization(2) = 0.5,
/
&ELECTRONS
	electron_maxstep = 50001,
	conv_thr = 1.0D-6 ,
	mixing_mode = 'local-TF' ,
	mixing_beta = 0.5 ,
/
ATOMIC_SPECIES
	C	12.01100	C.revpbe-n-kjpaw_psl.0.1.UPF 
	F	18.99800	F.revpbe-n-kjpaw_psl.0.1.UPF  
ATOMIC_POSITIONS (crystal)
C        0.002649879   0.001279967  -0.001404523
C        0.246202882  -0.007594235  -0.004280960
C        0.498630088   0.001279967  -0.001404523
C        0.753689621   0.007379241   0.006379534
C        0.003863556   0.252149797   0.001035484
C        0.085947161   0.167592534  -0.001491364
C        0.252854111   0.245797155  -0.003038048
C        0.327601066   0.155202133  -0.004241257
C        0.492943043   0.245797155  -0.003038048
C        0.581645372   0.167592534  -0.001491364
C        0.748286242   0.252149797   0.001035484
C        0.835838282   0.171676565   0.003179952
C       -0.000829437   0.498341126   0.000268151
C        0.090689457   0.417394417   0.000659783
C        0.265281074   0.496480717   0.000571144
C        0.349567954   0.408025688  -0.001366314
C        0.558457734   0.408025688  -0.001366314
C        0.731199643   0.496480717   0.000571144
C        0.826704959   0.417394417   0.000659783
C       -0.004178568   0.745521196  -0.002114993
C        0.081647543   0.663295087  -0.002157214
C        0.249699764   0.745521196  -0.002114993
C        0.338006100   0.663888519   0.001557816
C        0.497556320   0.763872945   0.005240754
F        0.591705868   0.683411737   0.032226157
C        0.766316624   0.763872945   0.005240754
C        0.825882418   0.663888519   0.001557816
C        0.079577919   0.911690767  -0.003144776
C        0.332112847   0.911690767  -0.003144776
C        0.587358420   0.923783808   0.004474522
C        0.836425388   0.923783808   0.004474522
K_POINTS automatic 
  16 16 1   0 0 0 
