 &CONTROL
                 calculation = 'relax' ,
                      outdir = './tmp/' ,
                  pseudo_dir = '/home/deleted/pseudo_psl' ,
                      prefix = 'GCl_op' ,
                   verbosity = 'high' ,
               etot_conv_thr = 1.0D-5 ,
               forc_conv_thr = 4.0D-4 ,
                       nstep = 1000 ,
                    dipfield = .true. ,
 /
 &SYSTEM
                       ibrav = 4,
                           A = 9.88 ,
                           C = 15 ,
                         nat = 34,
                        ntyp = 4,
                     ecutwfc = 40.424239707 ,
                     ecutrho = 404.24239707 ,
                 occupations = 'smearing' ,
                     degauss = 0.01 ,
				   input_dft = 'vdW-DF' ,
    nspin = 2 ,
    starting_magnetization(1) = 0.5,
    starting_magnetization(2) = 0.5,
    starting_magnetization(3) = 0.5,
	starting_magnetization(4) = 0.5,
 /
 &ELECTRONS
            electron_maxstep = 50001,
                    conv_thr = 1.0D-6 ,
                 mixing_mode = 'local-TF' ,
                 mixing_beta = 0.5 ,
 /
 &IONS
                ion_dynamics = 'bfgs' ,
 /
ATOMIC_SPECIES
    C   12.01100  C.revpbe-n-kjpaw_psl.0.1.UPF 
   Cl   35.45200  Cl.revpbe-n-kjpaw_psl.0.3.0.UPF 
    O   15.99940  O.revpbe-n-kjpaw_psl.0.1.UPF 
    H   1.008000  H.revpbe-kjpaw_psl.0.1.UPF
ATOMIC_POSITIONS (crystal)
C        0.018486859  -0.000528132  -0.003456503
C        0.265331654  -0.004827997  -0.012818896
C        0.517021267   0.000687775  -0.011856523
C        0.770456616   0.003781512   0.003583058
C        0.020864850   0.251257961  -0.005450660
C        0.102042889   0.166330967  -0.008364260
C        0.269739896   0.247201932  -0.011430472
C        0.346962552   0.158296891  -0.012420978
C        0.513272812   0.248113775  -0.010735765
C        0.599878469   0.167122394  -0.009171525
C        0.766129205   0.251091138  -0.007024226
C        0.852276384   0.168308042  -0.002913767
C        0.017330448   0.499170026  -0.008897403
C        0.106907900   0.416696087  -0.009348009
C        0.280399631   0.497830466  -0.013552047
C        0.361410853   0.409695319  -0.011590170
C        0.584144756   0.410422103  -0.006729488
C        0.753613310   0.498665435  -0.000009488
C        0.845585648   0.416823756  -0.005825357
C        0.013800734   0.747256376  -0.007055712
C        0.099015726   0.664094829  -0.012963517
C        0.267264060   0.747134227  -0.016733658
C        0.355948884   0.666382928  -0.018049810
C        0.516330499   0.759768132  -0.019440540
Cl       0.642053427   0.685748838   0.123416178
C        0.782785274   0.759695177   0.036761801
C        0.847448394   0.666991308   0.009221039
C        0.098529456   0.913258476  -0.007724519
C        0.350474492   0.913107967  -0.015333574
C        0.603519727   0.919629891  -0.008791824
C        0.853980955   0.919898884   0.013335935
O        0.282383215   0.745987469   0.203321022
O        0.213835733   0.823375046   0.204899557
H        0.28514108    0.814541807   0.299074596
K_POINTS automatic 
  4 4 1   0 0 0 

