 &CONTROL
                 calculation = 'scf' ,
                      outdir = './tmp/' ,
                  pseudo_dir = '/home/deleted/pseudo_psl' ,
                      prefix = 'MVG_tv' ,
                    dipfield = .true. ,
                   verbosity = 'high',
                       nstep = 1000,
               forc_conv_thr = 4.0D-4,
               etot_conv_thr = 1.0D-5
 /
 &SYSTEM
                       ibrav = 4,
                           A = 9.88 ,
                           C = 15 ,
                         nat = 32,
                        ntyp = 2,
                     ecutwfc = 40.424239707 ,
                     ecutrho = 404.24239707 ,
                 occupations = 'smearing' ,
                     degauss = 0.01 ,
				   input_dft = 'vdW-DF' ,
    nspin = 2 ,
    starting_magnetization(1) = 0.5,
	starting_magnetization(2) = 0.5,
 /
 &ELECTRONS
            electron_maxstep = 50001,
                    conv_thr = 1.0D-6 ,
                 mixing_mode = 'local-TF' ,
                 mixing_beta = 0.5 ,
 /
ATOMIC_SPECIES
    C   12.01100  C.revpbe-n-kjpaw_psl.0.1.UPF 
    O   15.99940  O.revpbe-n-kjpaw_psl.0.1.UPF 
ATOMIC_POSITIONS crystal 
C        0.000283027  -0.000283027   0.001293561
C        0.250121137   0.000242274   0.004203295
C        0.499433948  -0.000283027   0.001293561
C        0.750054711   0.000109422  -0.000482987
C       -0.000109422   0.249945289  -0.000482987
C        0.083090311   0.166813797   0.000644182
C        0.250707042   0.250104096   0.003581507
C        0.332646099   0.165292197   0.005073076
C        0.499397054   0.250104096   0.003581507
C        0.583723485   0.166813797   0.000644182
C        0.750054711   0.249945289  -0.000482987
C        0.833333333   0.166666667  -0.001105835
C        0.000283027   0.500566052   0.001293561
C        0.083090311   0.416276515   0.000644182
C        0.250707042   0.500602946   0.003581507
C        0.325770086   0.412885043   0.004490890
C        0.587114957   0.412885043   0.004490890
C        0.749895904   0.500602946   0.003581507
C        0.833186203   0.416276515   0.000644182
C       -0.000242274   0.749878863   0.004203295
C        0.083263853   0.666527707   0.003531106
C        0.250121137   0.749878863   0.004203295
C        0.332646099   0.667353901   0.005073076
C        0.499397054   0.749292958   0.003581507
C        0.587114957   0.674229914   0.004490890
C        0.749895904   0.749292958   0.003581507
C        0.834707803   0.667353901   0.005073076
C        0.083263853   0.916736147   0.003531106
C        0.333472293   0.916736147   0.003531106
C        0.583723485   0.916909689   0.000644182
C        0.833186203   0.916909689   0.000644182
O        0.500000000   0.500000000   0.021424872
K_POINTS automatic 
  16 16 1   0 0 0 

