 &CONTROL
                 calculation = 'nscf' ,
                      outdir = './tmp/' ,
                  pseudo_dir = '/home/deleted/pseudo_psl' ,
                      prefix = 'GF_op' ,
                   verbosity = 'high' ,
               etot_conv_thr = 1.0D-5 ,
               forc_conv_thr = 4.0D-4 ,
                       nstep = 1000 ,
                    dipfield = .true. ,
 /
 &SYSTEM
                       ibrav = 4,
                           A = 9.88 ,
                           C = 15 ,
                         nat = 33,
                        ntyp = 3,
                     ecutwfc = 40.424239707 ,
                     ecutrho = 404.24239707 ,
                 occupations = 'tetrahedra' ,
                     degauss = 0.01 ,
				   input_dft = 'vdW-DF' ,
 /
 &ELECTRONS
            electron_maxstep = 50001,
                    conv_thr = 1.0D-6 ,
                 mixing_mode = 'local-TF' ,
                 mixing_beta = 0.5 ,
 /
ATOMIC_SPECIES
    C   12.01100  C.revpbe-n-kjpaw_psl.0.1.UPF 
    F   18.99800  F.revpbe-n-kjpaw_psl.0.1.UPF 
    O   15.99940  O.revpbe-n-kjpaw_psl.0.1.UPF 
ATOMIC_POSITIONS crystal 
C       -0.005009354  -0.001689304  -0.006659186
C        0.245759788  -0.000143697  -0.000444744
C        0.496154939   0.001223711   0.004324048
C        0.743052487  -0.001918394  -0.004056850
C       -0.005203247   0.248913713   0.003389117
C        0.077755220   0.164234277   0.004749443
C        0.241972121   0.244936245   0.015109203
C        0.327616618   0.166956825   0.002460785
C        0.495934138   0.251159399  -0.008540161
C        0.579372048   0.166907859  -0.006455892
C        0.745543748   0.249825198  -0.007605635
C        0.828999995   0.165799388  -0.004444882
C       -0.003943162   0.499630826  -0.001623607
C        0.078484522   0.416673197   0.010146691
C        0.241014191   0.500951886   0.033991606
C        0.310793185   0.401599953   0.059605101
C        0.583731381   0.409950606  -0.023998407
C        0.744997853   0.498145484  -0.023960116
C        0.829858248   0.415986486  -0.011674816
C       -0.003460955   0.749906780  -0.010967549
C        0.079080755   0.666293799  -0.000251488
C        0.244153782   0.749287005   0.012282400
C        0.322949427   0.665388890   0.034930944
C        0.493406506   0.764481469   0.057762117
F        0.608099436   0.681285471  -0.067600033
C        0.758696566   0.756479770  -0.036911272
C        0.832114927   0.667660142  -0.026863433
C        0.078664122   0.915937443  -0.006065804
C        0.328468470   0.916879224   0.006030760
C        0.579754629   0.920496248   0.011853617
C        0.828823928   0.915874735  -0.015867294
O        0.560445526   0.734689085   0.116968451
O        0.398584824   0.429529617   0.123720222
K_POINTS automatic 
  20 20 1   0 0 0 

