 &CONTROL
                 calculation = 'scf' ,
                      outdir = './tmp/' ,
                  pseudo_dir = '/home/deleted/pseudo_psl' ,
                      prefix = 'GF_ip' ,
                   verbosity = 'high' ,
               etot_conv_thr = 1.0D-5 ,
               forc_conv_thr = 4.0D-4 ,
                       nstep = 1000 ,
                    dipfield = .true. ,
 /
 &SYSTEM
                       ibrav = 4,
                           A = 9.88 ,
                           C = 15 ,
                         nat = 33,
                        ntyp = 3,
                     ecutwfc = 40.424239707 ,
                     ecutrho = 404.24239707 ,
                 occupations = 'smearing' ,
                     degauss = 0.01 ,
				   input_dft = 'vdW-DF' ,
 /
 &ELECTRONS
            electron_maxstep = 50001,
                    conv_thr = 1.0D-6 ,
                 mixing_mode = 'local-TF' ,
                 mixing_beta = 0.5 ,
 /
ATOMIC_SPECIES
    C   12.01100  C.revpbe-n-kjpaw_psl.0.1.UPF 
    F   18.99800  F.revpbe-n-kjpaw_psl.0.1.UPF 
    O   15.99940  O.revpbe-n-kjpaw_psl.0.1.UPF 
ATOMIC_POSITIONS crystal 
C       -0.000218465  -0.001724543   0.008861417
C        0.244840295  -0.010319409   0.006615205
C        0.498493922  -0.001724543   0.008861417
C        0.752584873   0.005169747   0.014764766
C        0.003125310   0.250293005   0.010136051
C        0.084037800   0.164780611   0.008106966
C        0.250963450   0.243504925   0.006791125
C        0.326601826   0.153203652   0.005823277
C        0.492541474   0.243504925   0.006791125
C        0.580742809   0.164780611   0.008106966
C        0.747167694   0.250293005   0.010136051
C        0.834708419   0.169416838   0.011717648
C       -0.001571902   0.496856196   0.010693284
C        0.090304770   0.415620674   0.010582055
C        0.266056985   0.495806074   0.011180837
C        0.347074826   0.405556277   0.008865315
C        0.558481449   0.405556277   0.008865315
C        0.729749089   0.495806074   0.011180837
C        0.825315903   0.415620674   0.010582055
C       -0.007285592   0.743581820   0.009464705
C        0.081080104   0.662160208   0.009406184
C        0.250867411   0.743581820   0.009464705
C        0.341036102   0.663740732   0.012857113
C        0.505110958   0.757206036   0.016199115
F        0.607877298   0.715754597  -0.105696458
C        0.752095077   0.757206036   0.016199115
C        0.822704629   0.663740732   0.012857113
C        0.077998748   0.909462219   0.007946317
C        0.331463469   0.909462219   0.007946317
C        0.585921269   0.920925457   0.014011549
C        0.835004187   0.920925457   0.014011549
O        0.592643451   0.685286904   0.047442096
O        0.603983519   0.707967038   0.149228870
K_POINTS automatic 
  16 16 1   0 0 0 

