 &CONTROL
                 calculation = 'bands' ,
                      outdir = './tmp/' ,
                  pseudo_dir = '/home/deleted/pseudo_psl' ,
                      prefix = 'GI_ip' ,
                   verbosity = 'high' ,
               etot_conv_thr = 1.0D-5 ,
               forc_conv_thr = 4.0D-4 ,
                       nstep = 1000 ,
                    dipfield = .true. ,
 /
 &SYSTEM
                       ibrav = 4,
                           A = 9.88 ,
                           C = 15 ,
                         nat = 34,
                        ntyp = 4,
                     ecutwfc = 40.424239707 ,
                     ecutrho = 404.24239707 ,
                 occupations = 'tetrahedra' ,
                     degauss = 0.01 ,
				   input_dft = 'vdW-DF' ,
    nspin = 2 ,
    starting_magnetization(1) = 0.5,
    starting_magnetization(2) = 0.5,
    starting_magnetization(3) = 0.5,
 /
 &ELECTRONS
            electron_maxstep = 50001,
                    conv_thr = 1.0D-6 ,
                 mixing_mode = 'local-TF' ,
                 mixing_beta = 0.5 ,
 /
ATOMIC_SPECIES
    C   12.01100  C.revpbe-n-kjpaw_psl.0.1.UPF 
    I  126.90400  I.revpbe-n-kjpaw_psl.0.2.UPF 
    O   15.99940  O.revpbe-n-kjpaw_psl.0.1.UPF 
    H   1.008000  H.revpbe-kjpaw_psl.0.1.UPF
ATOMIC_POSITIONS (crystal)
C        0.010222980   0.013497387  -0.002778278
C        0.263010410   0.020266868  -0.005873699
C        0.508984956   0.013671898  -0.003042310
C        0.756995354   0.008418967   0.006989491
C        0.006805865   0.260355543  -0.010083603
C        0.092757504   0.180720749  -0.004225538
C        0.260242092   0.268222399   0.004235429
C        0.345827070   0.185699428   0.005804108
C        0.513961738   0.267687754   0.008368668
C        0.593982975   0.180717397  -0.001987253
C        0.759561401   0.260302576  -0.007939966
C        0.839829504   0.173609143  -0.005267983
C        0.009142555   0.512703467  -0.022433208
C        0.087790439   0.426859077  -0.017914710
C        0.251605284   0.511553473  -0.008323975
C        0.331172987   0.433052602   0.007433317
C        0.609205124   0.431683065   0.016893053
C        0.766508338   0.511075313  -0.000800023
C        0.845086071   0.426853459  -0.014521694
C        0.015022233   0.766965910  -0.015557778
C        0.093301312   0.681146171  -0.022861721
C        0.257743502   0.767376912  -0.018107021
C        0.336285939   0.682416871  -0.006914176
C        0.492432710   0.763130926   0.013221752
I        0.551680707   0.602355662   0.074158962
C        0.775876167   0.762810702   0.015631237
C        0.852121660   0.682101894  -0.001618393
C        0.095942163   0.933590291  -0.009086347
C        0.343274906   0.933719483  -0.009724343
C        0.589059245   0.927039441   0.007336413
C        0.843235369   0.926635227   0.008245812
O        0.671873089   0.798502272   0.182841014
O        0.524834152   0.762455375   0.231159743
H        0.547381396   0.736606044   0.290096286
K_POINTS automatic 
  20 20 1   0 0 0 

