 &CONTROL
                 calculation = 'bands' ,
                      outdir = './tmp/' ,
                  pseudo_dir = '/home/deleted/pseudo_psl' ,
                      prefix = 'GCl_op' ,
                   verbosity = 'high' ,
               etot_conv_thr = 1.0D-5 ,
               forc_conv_thr = 4.0D-4 ,
                       nstep = 1000 ,
                    dipfield = .true. ,
 /
 &SYSTEM
                       ibrav = 4,
                           A = 9.88 ,
                           C = 15 ,
                         nat = 34,
                        ntyp = 4,
                     ecutwfc = 40.424239707 ,
                     ecutrho = 404.24239707 ,
                 occupations = 'tetrahedra' ,
                     degauss = 0.01 ,
				   input_dft = 'vdW-DF' ,
 /
 &ELECTRONS
            electron_maxstep = 50001,
                    conv_thr = 1.0D-6 ,
                 mixing_mode = 'local-TF' ,
                 mixing_beta = 0.5 ,
 /
ATOMIC_SPECIES
    C   12.01100  C.revpbe-n-kjpaw_psl.0.1.UPF 
   Cl   35.45200  Cl.revpbe-n-kjpaw_psl.0.3.0.UPF 
    O   15.99940  O.revpbe-n-kjpaw_psl.0.1.UPF 
    H   1.008000  H.revpbe-kjpaw_psl.0.1.UPF
ATOMIC_POSITIONS crystal 
C       -0.001696312   0.005419152   0.002944524
C        0.246658624   0.002787574  -0.006175592
C        0.497350376   0.005192572   0.004280922
C        0.749584926   0.008632168   0.021760398
C       -0.001270786   0.255640288   0.003203326
C        0.080562002   0.171307500  -0.000774698
C        0.246160856   0.251701328  -0.009020640
C        0.328806180   0.167272259  -0.010733216
C        0.495730287   0.251418105  -0.009444994
C        0.581102997   0.171087712  -0.000837003
C        0.747221719   0.255667966   0.003358292
C        0.831381346   0.172524828   0.009508817
C       -0.002515937   0.504587576   0.001618299
C        0.083185091   0.421689010   0.001729290
C        0.252553378   0.503932563   0.001705150
C        0.329263456   0.415529209  -0.010109979
C        0.576384795   0.415389227  -0.010936323
C        0.741533808   0.503913123   0.000230985
C        0.828732552   0.421660792   0.001361417
C       -0.003822043   0.754007074  -0.001038154
C        0.080530638   0.670387663  -0.002850640
C        0.248504279   0.753932709  -0.000369738
C        0.333542276   0.671791749   0.011902315
C        0.490803903   0.763876665   0.037330600
Cl       0.580661258   0.686088745   0.108437837
C        0.758051141   0.762276811   0.028398207
C        0.828076269   0.672640829   0.008855962
C        0.079578217   0.920166300  -0.002200466
C        0.331027122   0.920231490  -0.001230965
C        0.581250764   0.925375699   0.022772555
C        0.834107583   0.924664787   0.019216343
O        0.490321419   0.490728412  -0.024698629
O        0.392742373   0.610411944   0.198838050
H        0.431288024   0.695271575   0.242276518
K_POINTS automatic  
4
0.0000000000    0.0000000000    0.0000000000 17
0.0000000000    0.5000000000    0.0000000000 10
0.3333333333    0.3333333333    0.0000000000 20
0.0000000000    0.0000000000    0.0000000000 1

