 &CONTROL
                 calculation = 'scf' ,
                      outdir = './tmp/' ,
                  pseudo_dir = '/home/deleted/pseudo_psl' ,
                      prefix = 'GCl_op' ,
                   verbosity = 'high' ,
               etot_conv_thr = 1.0D-5 ,
               forc_conv_thr = 4.0D-4 ,
                       nstep = 1000 ,
                    dipfield = .true. ,
 /
 &SYSTEM
                       ibrav = 4,
                           A = 9.88 ,
                           C = 15 ,
                         nat = 34,
                        ntyp = 4,
                     ecutwfc = 40.424239707 ,
                     ecutrho = 404.24239707 ,
                 occupations = 'smearing' ,
                     degauss = 0.01 ,
				   input_dft = 'vdW-DF' ,
    nspin = 2 ,
    starting_magnetization(1) = 0.5,
    starting_magnetization(2) = 0.5,
    starting_magnetization(3) = 0.5,
 /
 &ELECTRONS
            electron_maxstep = 50001,
                    conv_thr = 1.0D-6 ,
                 mixing_mode = 'local-TF' ,
                 mixing_beta = 0.5 ,
 /
ATOMIC_SPECIES
    C   12.01100  C.revpbe-n-kjpaw_psl.0.1.UPF 
   Cl   35.45200  Cl.revpbe-n-kjpaw_psl.0.3.0.UPF 
    O   15.99940  O.revpbe-n-kjpaw_psl.0.1.UPF 
    H   1.008000  H.revpbe-kjpaw_psl.0.1.UPF
ATOMIC_POSITIONS (crystal)
C        0.004378075   0.004660443  -0.002917191
C        0.250480995  -0.001025849  -0.010193045
C        0.502079891   0.004524034  -0.001493220
C        0.755770863   0.009412303   0.015468784
C        0.005950952   0.255323978  -0.001956143
C        0.087788533   0.171019930  -0.006103830
C        0.255043814   0.251377409  -0.010654850
C        0.331947325   0.161929614  -0.012069480
C        0.498194736   0.251141047  -0.010131240
C        0.585245476   0.170880930  -0.005439051
C        0.751403398   0.255332269  -0.001157885
C        0.837469416   0.172938604   0.003983168
C        0.002642349   0.503144739  -0.002967392
C        0.092051641   0.420831845  -0.002641913
C        0.265402910   0.501877608  -0.000534429
C        0.345903062   0.413289957  -0.007258034
C        0.569049441   0.413194448  -0.007018151
C        0.738401777   0.501866602  -0.001461911
C        0.830872761   0.420765776  -0.002352371
C       -0.000229325   0.750974177  -0.005457391
C        0.085037953   0.667878112  -0.007049774
C        0.253460287   0.751018178  -0.004918670
C        0.339947237   0.670225438   0.007324479
C        0.497380806   0.764575660   0.029809710
Cl       0.588511610   0.681996547   0.095125979
C        0.764156251   0.762934112   0.020926312
C        0.831728674   0.670595843   0.004331269
C        0.083285464   0.917017967  -0.007070008
C        0.335746215   0.917105430  -0.006144832
C        0.587273640   0.925785329   0.016303995
C        0.839910502   0.925239494   0.012543008
O        0.360033954   0.444008628   0.211082429
O        0.390700478   0.602539836   0.193016838
H        0.390020911   0.452746008   0.273833326
K_POINTS automatic 
  16 16 1   0 0 0 

