 &CONTROL
                 calculation = 'nscf' ,
                      outdir = './tmp/' ,
                  pseudo_dir = '/home/deleted/pseudo_psl' ,
                      prefix = 'GCl_ip' ,
                   verbosity = 'high' ,
               etot_conv_thr = 1.0D-5 ,
               forc_conv_thr = 4.0D-4 ,
                       nstep = 1000 ,
                    dipfield = .true. ,
 /
 &SYSTEM
                       ibrav = 4,
                           A = 9.88 ,
                           C = 15 ,
                         nat = 32,
                        ntyp = 3,
                     ecutwfc = 40.424239707 ,
                     ecutrho = 404.24239707 ,
                 occupations = 'tetrahedra' ,
                     degauss = 0.01 ,
				   input_dft = 'vdW-DF' ,
 /
 &ELECTRONS
            electron_maxstep = 50001,
                    conv_thr = 1.0D-6 ,
                 mixing_mode = 'local-TF' ,
                 mixing_beta = 0.5 ,
 /
ATOMIC_SPECIES
    C   12.01100  C.revpbe-n-kjpaw_psl.0.1.UPF 
   Cl   35.45200  Cl.revpbe-n-kjpaw_psl.0.3.0.UPF 
    O   15.99940  O.revpbe-n-kjpaw_psl.0.1.UPF 
ATOMIC_POSITIONS crystal 
C        0.005362170   0.010636434   0.010325224
C        0.254640753   0.009281505  -0.002142245
C        0.505274264   0.010636434   0.010325224
C        0.757363553   0.014727106   0.022847126
C        0.006556962   0.261989121   0.010831954
C        0.087354828   0.176285862   0.004485833
C        0.250514157   0.255223366  -0.015386906
C        0.336734647   0.173469296  -0.016129580
C        0.504709209   0.255223366  -0.015386906
C        0.588931033   0.176285862   0.004485833
C        0.755432159   0.261989121   0.010831954
C        0.839707805   0.179415610   0.016809922
C        0.005980739   0.511961479   0.012447959
C        0.089543035   0.428506228   0.009466097
C        0.257096842   0.511457253  -0.002461222
C        0.319391662   0.417089878  -0.027027072
C        0.597698215   0.417089878  -0.027027072
C        0.754360410   0.511457253  -0.002461222
C        0.838963192   0.428506228   0.009466097
C        0.003917286   0.760906504   0.007819723
C        0.089140471   0.678280944   0.007752852
C        0.256989218   0.760906504   0.007819723
C        0.344889860   0.678839370   0.008947128
C        0.509257457   0.766400129   0.022327403
Cl       0.496562969   0.493125940  -0.091536063
C        0.757142671   0.766400129   0.022327403
C        0.833949509   0.678839370   0.008947128
C        0.087915187   0.926719976   0.005306230
C        0.338804789   0.926719976   0.005306230
C        0.590410187   0.930515028   0.020843889
C        0.840104840   0.930515028   0.020843889
O        0.595299918   0.690599834   0.038993467
K_POINTS automatic 
  20 20 1   0 0 0 

