 &CONTROL
                 calculation = 'nscf' ,
                      outdir = './tmp/' ,
                  pseudo_dir = '/home/deleted/pseudo_psl' ,
                      prefix = 'GCl_ip' ,
                   verbosity = 'high' ,
               etot_conv_thr = 1.0D-5 ,
               forc_conv_thr = 4.0D-4 ,
                       nstep = 1000 ,
                    dipfield = .true. ,
 /
 &SYSTEM
                       ibrav = 4,
                           A = 9.88 ,
                           C = 15 ,
                         nat = 34,
                        ntyp = 4,
                     ecutwfc = 40.424239707 ,
                     ecutrho = 404.24239707 ,
                 occupations = 'tetrahedra' ,
                     degauss = 0.01 ,
				   input_dft = 'vdW-DF' ,
 /
 &ELECTRONS
            electron_maxstep = 50001,
                    conv_thr = 1.0D-6 ,
                 mixing_mode = 'local-TF' ,
                 mixing_beta = 0.5 ,
 /
ATOMIC_SPECIES
    C   12.01100  C.revpbe-n-kjpaw_psl.0.1.UPF 
   Cl   35.45200  Cl.revpbe-n-kjpaw_psl.0.3.0.UPF 
    O   15.99940  O.revpbe-n-kjpaw_psl.0.1.UPF 
    H   1.008000  H.revpbe-kjpaw_psl.0.1.UPF
ATOMIC_POSITIONS crystal 
C        0.002061061   0.016949769  -0.001406223
C        0.251355731   0.016094398   0.002764569
C        0.501215343   0.017337741   0.008137499
C        0.752907243   0.019589674   0.004627306
C        0.001620195   0.267012179   0.007611992
C        0.083900344   0.182840694   0.005520837
C        0.248494145   0.262978636   0.017737985
C        0.334323072   0.182258061   0.002407337
C        0.500776235   0.263671435  -0.012763928
C        0.585109176   0.183228029   0.001037789
C        0.751596249   0.267088569   0.000691689
C        0.835269395   0.184384612   0.004250948
C        0.001754224   0.516754459   0.005187472
C        0.085459084   0.433061056   0.012175251
C        0.251326083   0.513597165   0.029177366
C        0.316733290   0.418087104   0.051228990
C        0.590299753   0.420046955  -0.043444285
C        0.749542312   0.514145449  -0.019673916
C        0.834484613   0.433228849  -0.002237604
C       -0.000335542   0.765996271  -0.002597464
C        0.084938082   0.683162667   0.004577855
C        0.253075591   0.765948368   0.011134516
C        0.339377496   0.683000561   0.021664443
C        0.505262681   0.772775010   0.014190523
Cl       0.507400153   0.482619520  -0.126254174
C        0.753540398   0.772019183  -0.002186087
C        0.830361973   0.683053937  -0.011511614
C        0.083798696   0.932315157   0.000711513
C        0.334992315   0.932223897   0.005968688
C        0.586352720   0.936375284   0.009210164
C        0.835898161   0.935840907  -0.000062109
O        0.438707804   0.459061567   0.108457576
O        0.591726780   0.695856312   0.010209251
H        0.495259616   0.571103450   0.119181779
K_POINTS automatic 
  20 20 1   0 0 0 

