 &CONTROL
                 calculation = 'nscf' ,
                      outdir = './tmp/' ,
                  pseudo_dir = '/home/deleted/pseudo_psl' ,
                      prefix = 'GF_op' ,
                   verbosity = 'high' ,
               etot_conv_thr = 1.0D-5 ,
               forc_conv_thr = 4.0D-4 ,
                       nstep = 1000 ,
                    dipfield = .true. ,
 /
 &SYSTEM
                       ibrav = 4,
                           A = 9.88 ,
                           C = 15 ,
                         nat = 33,
                        ntyp = 3,
                     ecutwfc = 40.424239707 ,
                     ecutrho = 404.24239707 ,
                 occupations = 'tetrahedra' ,
                     degauss = 0.01 ,
				   input_dft = 'vdW-DF' ,
 /
 &ELECTRONS
            electron_maxstep = 50001,
                    conv_thr = 1.0D-6 ,
                 mixing_mode = 'local-TF' ,
                 mixing_beta = 0.5 ,
 /
ATOMIC_SPECIES
    C   12.01100  C.revpbe-n-kjpaw_psl.0.1.UPF 
    F   18.99800  F.revpbe-n-kjpaw_psl.0.1.UPF 
    O   15.99940  O.revpbe-n-kjpaw_psl.0.1.UPF 
ATOMIC_POSITIONS crystal 
C        0.003039953   0.003211940  -0.005698145
C        0.252691881   0.005383761  -0.000057162
C        0.500171988   0.003211940  -0.005698145
C        0.751655765   0.003311531  -0.009154944
C        0.000442231   0.251810780  -0.009130733
C        0.084887568   0.169170660   0.000721147
C        0.245966174   0.248998511   0.023117529
C        0.335439177   0.170878357   0.019235013
C        0.503032338   0.248998511   0.023117529
C        0.584283092   0.169170660   0.000721147
C        0.751368549   0.251810780  -0.009130733
C        0.834531011   0.169062022  -0.011106339
C        0.001190810   0.502381620  -0.021227442
C        0.083544575   0.418423677  -0.014809409
C        0.246327954   0.500478115   0.000218132
C        0.300174983   0.411577088   0.054568590
C        0.611402104   0.411577088   0.054568590
C        0.754150161   0.500478115   0.000218132
C        0.834879101   0.418423677  -0.014809409
C        0.002832509   0.753597638  -0.012145461
C        0.084495798   0.668991597  -0.016213674
C        0.250765129   0.753597638  -0.012145461
C        0.332238086   0.666137105  -0.006224516
C        0.492770301   0.760864422  -0.005885471
F        0.584449206   0.668898413  -0.004372698
C        0.768094121   0.760864422  -0.005885471
C        0.833899018   0.666137105  -0.006224516
C        0.085849230   0.920298147  -0.006383185
C        0.334448916   0.920298147  -0.006383185
C        0.585545477   0.920820714  -0.008196432
C        0.835275235   0.920820714  -0.008196432
O        0.604421889   0.463490888   0.127963246
O        0.359068999   0.463490888   0.127963246
K_POINTS automatic 
  20 20 1   0 0 0 

