&INPUTPP
          outdir = './tmp/'
          prefix = 'GCl_ip'
          filplot = 'GCl_ip_chg-dn'
          plot_num = 0,
          spin_component = 2
/
&PLOT
          nfile = 1
          filepp(1) = 'GCl_ip_chg-dn'
          weight(1) = 1.0,
          fileout = 'GCl_ip_chg-dn.xsf'
          iflag = 3
          output_format = 5
/
