 &CONTROL
                 calculation = 'scf' ,
                      outdir = './tmp/' ,
                  pseudo_dir = '/home/deleted/pseudo_psl' ,
                      prefix = 'GCl_ip' ,
                   verbosity = 'high' ,
               etot_conv_thr = 1.0D-5 ,
               forc_conv_thr = 4.0D-4 ,
                       nstep = 1000 ,
                    dipfield = .true. ,
 /
 &SYSTEM
                       ibrav = 4,
                           A = 9.88 ,
                           C = 15 ,
                         nat = 31,
                        ntyp = 2,
                     ecutwfc = 40.424239707 ,
                     ecutrho = 404.24239707 ,
                 occupations = 'smearing' ,
                     degauss = 0.01 ,
				   input_dft = 'vdW-DF' ,
    nspin = 2 ,
    starting_magnetization(1) = 0.5,
    starting_magnetization(2) = 0.5,
 /
 &ELECTRONS
            electron_maxstep = 50001,
                    conv_thr = 1.0D-6 ,
                 mixing_mode = 'local-TF' ,
                 mixing_beta = 0.5 ,
 /
ATOMIC_SPECIES
    C   12.01100  C.revpbe-n-kjpaw_psl.0.1.UPF 
   Cl   35.45200  Cl.revpbe-n-kjpaw_psl.0.3.0.UPF 
ATOMIC_POSITIONS (crystal)
C        0.002468214   0.002194489   0.000000000
C        0.250939505   0.001879010   0.000000000
C        0.499726275   0.002194489   0.000000000
C        0.751118951   0.002237902   0.000000000
C        0.000184143   0.250459888   0.000000000
C        0.083276919   0.167269381   0.000000000
C        0.249232014   0.250010491   0.000000000
C        0.333129552   0.166259104   0.000000000
C        0.500778476   0.250010491   0.000000000
C        0.583992461   0.167269381   0.000000000
C        0.750275745   0.250459888   0.000000000
C        0.833444652   0.166889305   0.000000000
C        0.000185586   0.500371173   0.000000000
C        0.082457072   0.416365709   0.000000000
C        0.249727162   0.498237140   0.000000000
C        0.326607629   0.411337433   0.000000000
C        0.584729802   0.411337433   0.000000000
C        0.748509977   0.498237140   0.000000000
C        0.833908636   0.416365709   0.000000000
C        0.002955308   0.751700991   0.000000000
C        0.083539628   0.667079257   0.000000000
C        0.248745683   0.751700991   0.000000000
C        0.330527303   0.668257176   0.000000000
C        0.492476139   0.759719114   0.000000000
Cl       0.566636485   0.633272971   0.000000000
C        0.767242975   0.759719114   0.000000000
C        0.837729873   0.668257176   0.000000000
C        0.084453998   0.917935235   0.000000000
C        0.333481235   0.917935235   0.000000000
C        0.583947346   0.920851929   0.000000000
C        0.836904582   0.920851929   0.000000000
K_POINTS automatic 
  16 16 1   0 0 0 

