 &CONTROL
                 calculation = 'scf' ,
                      outdir = './tmp/' ,
                  pseudo_dir = '/home/deleted/pseudo_psl' ,
                      prefix = 'GCl_op' ,
                   verbosity = 'high' ,
               etot_conv_thr = 1.0D-5 ,
               forc_conv_thr = 4.0D-4 ,
                       nstep = 1000 ,
                    dipfield = .true. ,
 /
 &SYSTEM
                       ibrav = 4,
                           A = 9.88 ,
                           C = 15 ,
                         nat = 33,
                        ntyp = 3,
                     ecutwfc = 40.424239707 ,
                     ecutrho = 404.24239707 ,
                 occupations = 'smearing' ,
                     degauss = 0.01 ,
				   input_dft = 'vdW-DF' ,
    nspin = 2 ,
    starting_magnetization(1) = 0.5,
    starting_magnetization(2) = 0.5,
    starting_magnetization(3) = 0.5,
 /
 &ELECTRONS
            electron_maxstep = 50001,
                    conv_thr = 1.0D-6 ,
                 mixing_mode = 'local-TF' ,
                 mixing_beta = 0.5 ,
 /
ATOMIC_SPECIES
    C   12.01100  C.revpbe-n-kjpaw_psl.0.1.UPF 
   Cl   35.45200  Cl.revpbe-n-kjpaw_psl.0.3.0.UPF 
    O   15.99940  O.revpbe-n-kjpaw_psl.0.1.UPF 
ATOMIC_POSITIONS (crystal)
C        0.001768597   0.000806568  -0.003497248
C        0.247155785  -0.005688429  -0.012014398
C        0.499037971   0.000806568  -0.003497248
C        0.752761068   0.005522136   0.015276267
C        0.002740739   0.251124439  -0.002272928
C        0.085046476   0.167221666  -0.006895363
C        0.252329244   0.247031798  -0.011183178
C        0.328768407   0.157536815  -0.013557232
C        0.494702555   0.247031798  -0.011183178
C        0.582175190   0.167221666  -0.006895363
C        0.748383701   0.251124439  -0.002272928
C        0.834685335   0.169370671   0.003356918
C       -0.000743428   0.498513144  -0.003448839
C        0.088822446   0.416715719  -0.002903797
C        0.262411503   0.497348040  -0.000898407
C        0.344619993   0.409231005  -0.006891581
C        0.564611011   0.409231005  -0.006891581
C        0.734936537   0.497348040  -0.000898407
C        0.827893272   0.416715719  -0.002903797
C       -0.003072107   0.746437909  -0.005910649
C        0.081790793   0.663581587  -0.007850524
C        0.249510016   0.746437909  -0.005910649
C        0.335886146   0.665304976   0.005988863
C        0.494037337   0.761288877   0.025579220
Cl       0.591652499   0.683305000   0.089320877
C        0.767251541   0.761288877   0.025579220
C        0.829418829   0.665304976   0.005988863
C        0.080317070   0.912755686  -0.007987634
C        0.332438615   0.912755686  -0.007987634
C        0.584707168   0.922747901   0.014076961
C        0.838040731   0.922747901   0.014076961
O        0.655368754   0.682820591   0.290154964
O        0.527451834   0.682820591   0.290154964
K_POINTS automatic 
  16 16 1   0 0 0 

