 &CONTROL
                 calculation = 'nscf' ,
                      outdir = './tmp/' ,
                  pseudo_dir = '/home/deleted/pseudo_psl' ,
                      prefix = 'GF_op' ,
                   verbosity = 'high' ,
               etot_conv_thr = 1.0D-5 ,
               forc_conv_thr = 4.0D-4 ,
                       nstep = 1000 ,
                    dipfield = .true. ,
 /
 &SYSTEM
                       ibrav = 4,
                           A = 9.88 ,
                           C = 15 ,
                         nat = 33,
                        ntyp = 3,
                     ecutwfc = 40.424239707 ,
                     ecutrho = 404.24239707 ,
                 occupations = 'tetrahedra' ,
                     degauss = 0.01 ,
				   input_dft = 'vdW-DF' ,
    nspin = 2 ,
    starting_magnetization(1) = 0.5,
    starting_magnetization(2) = 0.5,
    starting_magnetization(3) = 0.5,
 /
 &ELECTRONS
            electron_maxstep = 50001,
                    conv_thr = 1.0D-6 ,
                 mixing_mode = 'local-TF' ,
                 mixing_beta = 0.5 ,
 /
ATOMIC_SPECIES
    C   12.01100  C.revpbe-n-kjpaw_psl.0.1.UPF 
    F   18.99800  F.revpbe-n-kjpaw_psl.0.1.UPF 
    O   15.99940  O.revpbe-n-kjpaw_psl.0.1.UPF 
ATOMIC_POSITIONS (crystal)
C       -0.004105707   0.001294962  -0.002946073
C        0.242649966  -0.003343953   0.004082630
C        0.493925617   0.001303887   0.010817524
C        0.744782661   0.002693880   0.003085413
C       -0.002861883   0.252109042   0.000107889
C        0.079270686   0.167981233   0.001871455
C        0.246936931   0.249287523   0.003144380
C        0.324251387   0.160186347   0.003410122
C        0.490287671   0.248793978   0.002140685
C        0.576662686   0.167635353   0.003266139
C        0.742959501   0.252083851   0.002209326
C        0.828269234   0.168967683   0.001071917
C       -0.005847050   0.500117170   0.000595129
C        0.083277754   0.418067969   0.003180443
C        0.257660845   0.500796742   0.010968157
C        0.338553407   0.411633593   0.005188077
C        0.561379131   0.411290163  -0.001640105
C        0.730607449   0.499723900  -0.008371264
C        0.822465484   0.417933699  -0.001914843
C       -0.007531430   0.748751506  -0.004563302
C        0.077028019   0.665607212   0.001512818
C        0.244455326   0.748252342   0.010020330
C        0.329796437   0.667800850   0.022357355
C        0.489740169   0.761997082   0.049329770
F        0.615291403   0.690852215  -0.073210332
C        0.759585850   0.761950228  -0.033914070
C        0.825854159   0.668137506  -0.017046898
C        0.075743833   0.914760631  -0.001790974
C        0.327020595   0.915079936   0.010050567
C        0.580163559   0.921853020   0.021375408
C        0.829914140   0.921160212  -0.012317081
O        0.686509379   0.774343105   0.142598251
O        0.537925331   0.688537529   0.105765738
K_POINTS automatic 
  20 20 1   0 0 0 

