 &CONTROL
                 calculation = 'nscf' ,
                      outdir = './tmp/' ,
                  pseudo_dir = '/home/deleted/pseudo_psl' ,
                      prefix = 'GI_ip' ,
                   verbosity = 'high' ,
               etot_conv_thr = 1.0D-5 ,
               forc_conv_thr = 4.0D-4 ,
                       nstep = 1000 ,
                    dipfield = .true. ,
 /
 &SYSTEM
                       ibrav = 4,
                           A = 9.88 ,
                           C = 15 ,
                         nat = 33,
                        ntyp = 3,
                     ecutwfc = 40.424239707 ,
                     ecutrho = 404.24239707 ,
                 occupations = 'tetrahedra' ,
                     degauss = 0.01 ,
				   input_dft = 'vdW-DF' ,
    nspin = 2 ,
    starting_magnetization(1) = 0.5,
    starting_magnetization(2) = 0.5,
    starting_magnetization(3) = 0.5,
 /
 &ELECTRONS
            electron_maxstep = 50001,
                    conv_thr = 1.0D-6 ,
                 mixing_mode = 'local-TF' ,
                 mixing_beta = 0.5 ,
 /
ATOMIC_SPECIES
    C   12.01100  C.revpbe-n-kjpaw_psl.0.1.UPF 
    I  126.90400  I.revpbe-n-kjpaw_psl.0.2.UPF 
    O   15.99940  O.revpbe-n-kjpaw_psl.0.1.UPF 
ATOMIC_POSITIONS (crystal)
C        0.006588237  -0.000732680  -0.002519653
C        0.259241115   0.006156543  -0.006539072
C        0.504841305  -0.000683030  -0.004427077
C        0.753226216  -0.005646799   0.005932364
C        0.002522514   0.246111342  -0.010805035
C        0.088324402   0.166403387  -0.003425282
C        0.255280319   0.252854529   0.007428596
C        0.341681077   0.171303399   0.007051375
C        0.509560101   0.252936541   0.008954950
C        0.590015399   0.166493974  -0.002774994
C        0.755510563   0.246202248  -0.009718700
C        0.835757415   0.159553093  -0.006849716
C        0.005170480   0.498861620  -0.025812194
C        0.083069310   0.412672860  -0.019432321
C        0.245398399   0.497586411  -0.005784653
C        0.320901691   0.416460422   0.014495367
C        0.607416994   0.416264422   0.018692903
C        0.764592085   0.497720419  -0.000472198
C        0.841498215   0.412992356  -0.016713792
C        0.011593434   0.752766926  -0.016674057
C        0.089271725   0.666846050  -0.025786534
C        0.253407949   0.753039423  -0.020028658
C        0.330910369   0.668047258  -0.006914213
C        0.487997603   0.749190466   0.011572170
I        0.545976876   0.583844382   0.064078768
C        0.774233482   0.749708963   0.018011108
C        0.849930097   0.668131352  -0.000619535
C        0.092423378   0.919546019  -0.009450091
C        0.339396157   0.919612343  -0.011440010
C        0.585387677   0.912741792   0.005452668
C        0.839694420   0.912960728   0.008399381
O        0.406846846   0.863755307   0.212516327
O        0.419438778   0.743260545   0.223601809
K_POINTS automatic 
  20 20 1   0 0 0 

