 &CONTROL
                 calculation = 'scf' ,
                      outdir = './tmp/' ,
                  pseudo_dir = '/home/deleted/pseudo_psl' ,
                      prefix = 'GCl_op' ,
                   verbosity = 'high' ,
               etot_conv_thr = 1.0D-5 ,
               forc_conv_thr = 4.0D-4 ,
                       nstep = 1000 ,
                    dipfield = .true. ,
 /
 &SYSTEM
                       ibrav = 4,
                           A = 9.88 ,
                           C = 15 ,
                         nat = 33,
                        ntyp = 3,
                     ecutwfc = 40.424239707 ,
                     ecutrho = 404.24239707 ,
                 occupations = 'smearing' ,
                     degauss = 0.01 ,
				   input_dft = 'vdW-DF' ,
 /
 &ELECTRONS
            electron_maxstep = 50001,
                    conv_thr = 1.0D-6 ,
                 mixing_mode = 'local-TF' ,
                 mixing_beta = 0.5 ,
 /
ATOMIC_SPECIES
    C   12.01100  C.revpbe-n-kjpaw_psl.0.1.UPF 
   Cl   35.45200  Cl.revpbe-n-kjpaw_psl.0.3.0.UPF 
    O   15.99940  O.revpbe-n-kjpaw_psl.0.1.UPF 
ATOMIC_POSITIONS crystal 
C       -0.002569107  -0.007926071  -0.006025155
C        0.242815415  -0.014369170  -0.014396823
C        0.494643036  -0.007926071  -0.006025155
C        0.748472586  -0.003054828   0.012311388
C       -0.001717022   0.242282941  -0.004975303
C        0.080633419   0.158437800  -0.009427643
C        0.247862849   0.238275532  -0.013498139
C        0.324404271   0.148808541  -0.015853071
C        0.490412683   0.238275532  -0.013498139
C        0.577804380   0.158437800  -0.009427643
C        0.743999964   0.242282941  -0.004975303
C        0.830236201   0.160472404   0.000092261
C       -0.005139102   0.489721798  -0.005683465
C        0.084371622   0.407823451  -0.005188950
C        0.257978626   0.488557767  -0.002829772
C        0.340027865   0.400418262  -0.009010488
C        0.560390396   0.400418262  -0.009010488
C        0.730579140   0.488557767  -0.002829772
C        0.823451828   0.407823451  -0.005188950
C       -0.007366036   0.737733218  -0.008101801
C        0.077364170   0.654728340  -0.010030169
C        0.245099254   0.737733218  -0.008101801
C        0.331400575   0.656628705   0.004156776
C        0.489350366   0.753133883   0.023905731
Cl       0.587234724   0.674469450   0.086665740
C        0.763783518   0.753133883   0.023905731
C        0.825228129   0.656628705   0.004156776
C        0.075922592   0.904025928  -0.010349166
C        0.328103336   0.904025928  -0.010349166
C        0.580478378   0.914239583   0.011670458
C        0.833761204   0.914239583   0.011670458
O        0.760469490   1.020938977   0.206502381
O        0.707177914   0.914355828   0.266405327
K_POINTS automatic 
  16 16 1   0 0 0 

