 &CONTROL
                 calculation = 'scf' ,
                      outdir = './tmp/' ,
                  pseudo_dir = '/home/deleted/pseudo_psl' ,
                      prefix = 'GF_ip' ,
                   verbosity = 'high' ,
               etot_conv_thr = 1.0D-5 ,
               forc_conv_thr = 4.0D-4 ,
                       nstep = 1000 ,
                    dipfield = .true. ,
 /
 &SYSTEM
                       ibrav = 4,
                           A = 9.88 ,
                           C = 15 ,
                         nat = 33,
                        ntyp = 3,
                     ecutwfc = 40.424239707 ,
                     ecutrho = 404.24239707 ,
                 occupations = 'smearing' ,
                     degauss = 0.01 ,
				   input_dft = 'vdW-DF' ,
    nspin = 2 ,
    starting_magnetization(1) = 0.5,
    starting_magnetization(2) = 0.5,
    starting_magnetization(3) = 0.5,
 /
 &ELECTRONS
            electron_maxstep = 50001,
                    conv_thr = 1.0D-6 ,
                 mixing_mode = 'local-TF' ,
                 mixing_beta = 0.5 ,
 /
ATOMIC_SPECIES
    C   12.01100  C.revpbe-n-kjpaw_psl.0.1.UPF 
    F   18.99800  F.revpbe-n-kjpaw_psl.0.1.UPF 
    O   15.99940  O.revpbe-n-kjpaw_psl.0.1.UPF 
ATOMIC_POSITIONS (crystal)
C        0.003303685   0.002563715  -0.003061802
C        0.247119829  -0.005760343  -0.005299081
C        0.499260030   0.002563715  -0.003061802
C        0.754174504   0.008349008   0.002919605
C        0.004400746   0.253297134  -0.000591841
C        0.086415489   0.168809223  -0.002836108
C        0.253213229   0.247169033  -0.004103023
C        0.328517283   0.157034565  -0.005232916
C        0.493955804   0.247169033  -0.004103023
C        0.582393734   0.168809223  -0.002836108
C        0.748896387   0.253297134  -0.000591841
C        0.836239111   0.172478222   0.000928714
C       -0.000134014   0.499731972  -0.001306310
C        0.090924679   0.418542503  -0.000855458
C        0.265382135   0.497784383  -0.000972644
C        0.348304992   0.409261770  -0.002544374
C        0.560956777   0.409261770  -0.002544374
C        0.732402249   0.497784383  -0.000972644
C        0.827617824   0.418542503  -0.000855458
C       -0.003161742   0.747197800  -0.003583922
C        0.082373148   0.664746298  -0.003486185
C        0.250359541   0.747197800  -0.003583922
C        0.338654479   0.665609733  -0.000603910
C        0.497883692   0.765232719   0.002334918
F        0.591416361   0.682832724   0.022498742
C        0.767349027   0.765232719   0.002334918
C        0.826955254   0.665609733  -0.000603910
C        0.080475185   0.913305989  -0.004406244
C        0.332830802   0.913305989  -0.004406244
C        0.587861817   0.924999989   0.001361903
C        0.837138171   0.924999989   0.001361903
O        0.720503143   0.813186454   0.214351220
O        0.592683312   0.813186454   0.214351220
K_POINTS automatic 
  16 16 1   0 0 0 

