 &CONTROL
                 calculation = 'scf' ,
                      outdir = './tmp_subs/' ,
                  pseudo_dir = '/home/deleted/pseudo_psl' ,
                      prefix = 'GCl_op-subs' ,
                   verbosity = 'high' ,
               etot_conv_thr = 1.0D-5 ,
               forc_conv_thr = 4.0D-4 ,
                       nstep = 1000 ,
                    dipfield = .true. ,
 /
 &SYSTEM
                       ibrav = 4,
                           A = 9.88 ,
                           C = 15 ,
                         nat = 31,
                        ntyp = 2,
                     ecutwfc = 40.424239707 ,
                     ecutrho = 404.24239707 ,
                 occupations = 'smearing' ,
                     degauss = 0.01 ,
				   input_dft = 'vdW-DF' ,
    nspin = 2 ,
    starting_magnetization(1) = 0.5,
    starting_magnetization(2) = 0.5,
 /
 &ELECTRONS
            electron_maxstep = 50001,
                    conv_thr = 1.0D-6 ,
                 mixing_mode = 'local-TF' ,
                 mixing_beta = 0.5 ,
 /
ATOMIC_SPECIES
    C   12.01100  C.revpbe-n-kjpaw_psl.0.1.UPF 
   Cl   35.45200  Cl.revpbe-n-kjpaw_psl.0.3.0.UPF 
ATOMIC_POSITIONS (crystal)
C        0.008840450   0.000462226  -0.002146506
C        0.254154135  -0.006172617  -0.011085359
C        0.506135612   0.000479265  -0.003564791
C        0.009916280   0.250926793  -0.001383967
C        0.092112034   0.166859547  -0.005758997
C        0.259379869   0.246591586  -0.010099842
C        0.335759315   0.157044989  -0.012492838
C        0.501703663   0.246649759  -0.010401272
C        0.589250390   0.166872797  -0.006404371
C        0.755499397   0.250916179  -0.001575016
C        0.841877947   0.169282527   0.004143357
C        0.006418300   0.498258888  -0.002798354
C        0.096046472   0.416473290  -0.002344065
C        0.269618273   0.497068079  -0.000732995
C        0.351811924   0.408818767  -0.006289728
C        0.571415132   0.408854383  -0.006080846
C        0.741930376   0.497082742  -0.000002088
C        0.834993842   0.416485928  -0.002077038
C        0.003910156   0.746035900  -0.004679253
C        0.088896754   0.663271998  -0.007279162
C        0.256716741   0.746098345  -0.006229931
C        0.343145838   0.664984881   0.005255665
C        0.501185169   0.761082820   0.024832706
Cl       0.597208601   0.682802844   0.090213168
C        0.773951939   0.760958804   0.026648188
C        0.836317801   0.664916149   0.007220346
C        0.087339443   0.912357310  -0.006679818
C        0.339559758   0.912343868  -0.007930142
C        0.591924305   0.922478095   0.014005035
C        0.844970007   0.922495419   0.015205835
K_POINTS automatic 
  16 16 1   0 0 0 

