 &CONTROL
                 calculation = 'nscf' ,
                      outdir = './tmp/' ,
                  pseudo_dir = '/home/deleted/pseudo_psl' ,
                      prefix = 'GBr_ip' ,
                   verbosity = 'high' ,
               etot_conv_thr = 1.0D-5 ,
               forc_conv_thr = 4.0D-4 ,
                       nstep = 1000 ,
                    dipfield = .true. ,
 /
 &SYSTEM
                       ibrav = 4,
                           A = 9.88 ,
                           C = 15 ,
                         nat = 34,
                        ntyp = 4,
                     ecutwfc = 40.424239707 ,
                     ecutrho = 404.24239707 ,
                 occupations = 'tetrahedra' ,
                     degauss = 0.01 ,
				   input_dft = 'vdW-DF' ,
    nspin = 2 ,
    starting_magnetization(1) = 0.5,
    starting_magnetization(2) = 0.5,
    starting_magnetization(3) = 0.5,
 /
 &ELECTRONS
            electron_maxstep = 50001,
                    conv_thr = 1.0D-6 ,
                 mixing_mode = 'local-TF' ,
                 mixing_beta = 0.5 ,
 /
ATOMIC_SPECIES
    C   12.01100  C.revpbe-n-kjpaw_psl.0.1.UPF 
   Br   79.90350  Br.revpbe-n-kjpaw_psl.0.2.UPF 
    O   15.99940  O.revpbe-n-kjpaw_psl.0.1.UPF 
    H   1.008000  H.revpbe-kjpaw_psl.0.1.UPF
ATOMIC_POSITIONS (crystal)
C       -0.000395742   0.011539340  -0.005145082
C        0.252212465   0.018413691  -0.001913913
C        0.497948361   0.011519998  -0.005304656
C        0.746129095   0.006190396  -0.011720881
C       -0.004186783   0.258550857   0.000412647
C        0.081612600   0.178814845  -0.005068551
C        0.249419292   0.265992157  -0.012915473
C        0.335067067   0.184162092  -0.011741914
C        0.502541173   0.265978322  -0.013253997
C        0.583167921   0.178796638  -0.005286124
C        0.748687878   0.258525355   0.000303579
C        0.828952678   0.171931158  -0.001829213
C       -0.001450044   0.511104843   0.011222955
C        0.076454865   0.425207056   0.005843403
C        0.239509278   0.510228941  -0.005397010
C        0.316170084   0.429381404  -0.020195975
C        0.599298762   0.429305385  -0.021037233
C        0.756852036   0.510215980  -0.006276649
C        0.834749355   0.425213696   0.005509874
C        0.004727004   0.765086234   0.005451429
C        0.082614655   0.679189791   0.011165714
C        0.246419453   0.765119755   0.005663518
C        0.324466102   0.680136615  -0.005547774
C        0.481974403   0.760955482  -0.020428187
Br       0.540584446   0.595214367  -0.046925418
C        0.765238121   0.761042136  -0.021203877
C        0.841843453   0.680112060  -0.006349791
C        0.085379691   0.931789647   0.000310512
C        0.332435008   0.931782395   0.000193043
C        0.578621474   0.924353436  -0.013112184
C        0.831806106   0.924346976  -0.013217725
O        0.472315132   0.462695738   0.186739394
O        0.565521329   0.619935794   0.160046234
H        0.485269556   0.468382857   0.251775538
K_POINTS automatic 
  20 20 1   0 0 0 

