 &CONTROL
                 calculation = 'scf' ,
                      outdir = './tmp/' ,
                  pseudo_dir = '/home/deleted/pseudo_psl' ,
                      prefix = 'GI_ip' ,
                   verbosity = 'high' ,
               etot_conv_thr = 1.0D-5 ,
               forc_conv_thr = 4.0D-4 ,
                       nstep = 1000 ,
                    dipfield = .true. ,
 /
 &SYSTEM
                       ibrav = 4,
                           A = 9.88 ,
                           C = 15 ,
                         nat = 33,
                        ntyp = 3,
                     ecutwfc = 40.424239707 ,
                     ecutrho = 404.24239707 ,
                 occupations = 'smearing' ,
                     degauss = 0.01 ,
				   input_dft = 'vdW-DF' ,
    nspin = 2 ,
    starting_magnetization(1) = 0.5,
    starting_magnetization(2) = 0.5,
    starting_magnetization(3) = 0.5,
 /
 &ELECTRONS
            electron_maxstep = 50001,
                    conv_thr = 1.0D-6 ,
                 mixing_mode = 'local-TF' ,
                 mixing_beta = 0.5 ,
 /
ATOMIC_SPECIES
    C   12.01100  C.revpbe-n-kjpaw_psl.0.1.UPF 
    I  126.90400  I.revpbe-n-kjpaw_psl.0.2.UPF 
    O   15.99940  O.revpbe-n-kjpaw_psl.0.1.UPF 
ATOMIC_POSITIONS (crystal)
C        0.002136471   0.002507841  -0.011769874
C        0.254709501   0.009419003  -0.007994578
C        0.500371370   0.002507841  -0.011769874
C        0.748796515  -0.002406969  -0.021688841
C       -0.001848439   0.249365392  -0.004433787
C        0.083956134   0.169673424  -0.011767950
C        0.250830718   0.256026675  -0.023129719
C        0.337294490   0.174588981  -0.021687238
C        0.505195957   0.256026675  -0.023129719
C        0.585717289   0.169673424  -0.011767950
C        0.751213830   0.249365392  -0.004433787
C        0.831380767   0.162761535  -0.007993513
C        0.001043642   0.502087284   0.011649911
C        0.078927152   0.416139629   0.003460105
C        0.240556705   0.500903370  -0.012745134
C        0.315747369   0.419156412  -0.032783981
C        0.603409042   0.419156412  -0.032783981
C        0.760346665   0.500903370  -0.012745134
C        0.837212476   0.416139629   0.003460105
C        0.007163991   0.756039494   0.003454372
C        0.085045395   0.670090790   0.011648375
C        0.248875503   0.756039494   0.003454372
C        0.325740965   0.671275551  -0.012747927
C        0.482683140   0.753024652  -0.032776663
I        0.543046802   0.586093604  -0.079563176
C        0.770341512   0.753024652  -0.032776663
C        0.845534586   0.671275551  -0.012747927
C        0.087938516   0.922814835  -0.004437121
C        0.334876320   0.922814835  -0.004437121
C        0.580894255   0.916155451  -0.023130002
C        0.835261194   0.916155451  -0.023130002
O        0.605824836   0.584947098   0.420622210
O        0.479122261   0.584947098   0.420622210
K_POINTS automatic 
  16 16 1   0 0 0 

