&INPUTPP
                 outdir= './tmp_ads/'
                 prefix = 'GCl_op_ads' ,
                 filplot = 'GCl_chgbader_ads'
                 plot_num = 0,
                 spin_component = 0,    
 /
&PLOT
                 nfile = 1 
                 filepp(1) = 'GCl_chgbader_ads'
                 weight(1) = 1.0 ,
                 fileout = 'GCl_chgbader_ads.cube',
                 iflag  = 3,
                 output_format = 6,
 /
