 &CONTROL
                 calculation = 'nscf' ,
                      outdir = './tmp/' ,
                  pseudo_dir = '/home/deleted/pseudo_psl' ,
                      prefix = 'GF_ip' ,
                   verbosity = 'high' ,
               etot_conv_thr = 1.0D-5 ,
               forc_conv_thr = 4.0D-4 ,
                       nstep = 1000 ,
                    dipfield = .true. ,
 /
 &SYSTEM
                       ibrav = 4,
                           A = 9.88 ,
                           C = 15 ,
                         nat = 34,
                        ntyp = 4,
                     ecutwfc = 40.424239707 ,
                     ecutrho = 404.24239707 ,
                 occupations = 'tetrahedra' ,
                     degauss = 0.01 ,
				   input_dft = 'vdW-DF' ,
    nspin = 2 ,
    starting_magnetization(1) = 0.5,
    starting_magnetization(2) = 0.5,
    starting_magnetization(3) = 0.5,
 /
 &ELECTRONS
            electron_maxstep = 50001,
                    conv_thr = 1.0D-6 ,
                 mixing_mode = 'local-TF' ,
                 mixing_beta = 0.5 ,
 /
ATOMIC_SPECIES
    C   12.01100  C.revpbe-n-kjpaw_psl.0.1.UPF 
    F   18.99800  F.revpbe-n-kjpaw_psl.0.1.UPF 
    O   15.99940  O.revpbe-n-kjpaw_psl.0.1.UPF 
    H   1.008000  H.revpbe-kjpaw_psl.0.1.UPF
ATOMIC_POSITIONS (crystal)
C        0.002880508   0.000609769   0.017817917
C        0.248810458  -0.003339823   0.013227493
C        0.500415348  -0.000720695   0.005897208
C        0.754137610  -0.000029361   0.007008369
C        0.003794791   0.250116150   0.010659678
C        0.087240466   0.167058902   0.014227930
C        0.253018267   0.246361056   0.020574169
C        0.332094772   0.162876088   0.015668484
C        0.500981909   0.250428751   0.011957704
C        0.585466457   0.166962530   0.009536535
C        0.751078306   0.250258192   0.005864788
C        0.837658429   0.167532972   0.006201624
C        0.001285448   0.499608862   0.005529716
C        0.090605952   0.418455529   0.005306831
C        0.257764330   0.501170527   0.002632890
C        0.343006660   0.415527657   0.037817774
C        0.575068672   0.412359367   0.010980294
C        0.743126310   0.499070569   0.017072941
C        0.832186991   0.416548093   0.008513138
C       -0.001276794   0.746947229   0.017566325
C        0.083703147   0.665150503   0.007958268
C        0.250310301   0.749196357   0.002465843
C        0.334628955   0.666585192  -0.008126849
C        0.495892232   0.758948047  -0.025405720
F        0.565938772   0.685751826  -0.065755288
C        0.763072489   0.757441601   0.055649593
C        0.834727890   0.665189994   0.027422752
C        0.084363207   0.915254331   0.018751273
C        0.334103283   0.915044241   0.006197051
C        0.585003211   0.917660401  -0.004559617
C        0.837336568   0.920304774   0.022377209
O        0.653798447   0.708584847   0.110770179
O        0.376936080   0.447756215   0.128255237
H        0.476600718   0.548023865   0.134047211
K_POINTS automatic 
  20 20 1   0 0 0 

