 &CONTROL
                 calculation = 'scf' ,
                      outdir = './tmp_subs/' ,
                  pseudo_dir = '/home/deleted/pseudo_psl' ,
                      prefix = 'GI_ip-subs' ,
                   verbosity = 'high' ,
               etot_conv_thr = 1.0D-5 ,
               forc_conv_thr = 4.0D-4 ,
                       nstep = 1000 ,
                    dipfield = .true. ,
 /
 &SYSTEM
                       ibrav = 4,
                           A = 9.88 ,
                           C = 15 ,
                         nat = 31,
                        ntyp = 2,
                     ecutwfc = 40.424239707 ,
                     ecutrho = 404.24239707 ,
                 occupations = 'smearing' ,
                     degauss = 0.01 ,
				   input_dft = 'vdW-DF' ,
    nspin = 2 ,
    starting_magnetization(1) = 0.5,
    starting_magnetization(2) = 0.5,
 /
 &ELECTRONS
            electron_maxstep = 50001,
                    conv_thr = 1.0D-6 ,
                 mixing_mode = 'local-TF' ,
                 mixing_beta = 0.5 ,
 /
ATOMIC_SPECIES
    C   12.01100  C.revpbe-n-kjpaw_psl.0.1.UPF 
    I  126.90400  I.revpbe-n-kjpaw_psl.0.2.UPF 
ATOMIC_POSITIONS (crystal)
C        0.007102330   0.012451761   0.003805337
C        0.259767830   0.019535660   0.007881987
C        0.505349431   0.012451761   0.003805337
C        0.753659658   0.007319317  -0.006129700
C        0.003060947   0.259231061   0.011246358
C        0.088895439   0.179589727   0.004000198
C        0.255795938   0.266080796  -0.007230614
C        0.342354911   0.184709823  -0.005646748
C        0.510284858   0.266080796  -0.007230614
C        0.590694287   0.179589727   0.004000198
C        0.756170113   0.259231061   0.011246358
C        0.836239139   0.172478279   0.007732900
C        0.006024884   0.512049769   0.026835705
C        0.083855635   0.426035136   0.018839188
C        0.245499933   0.510886080   0.002602379
C        0.320747403   0.429155772  -0.016881629
C        0.608408368   0.429155772  -0.016881629
C        0.765386147   0.510886080   0.002602379
C        0.842179500   0.426035136   0.018839188
C        0.012184198   0.766067111   0.018704507
C        0.090029566   0.680059132   0.026839281
C        0.253882912   0.766067111   0.018704507
C        0.330646879   0.681295988   0.002228053
C        0.487378741   0.763085163  -0.018025280
I        0.547936139   0.595872279  -0.063395566
C        0.775706422   0.763085163  -0.018025280
C        0.850649108   0.681295988   0.002228053
C        0.092944982   0.932835014   0.011172099
C        0.339890032   0.932835014   0.011172099
C        0.585714426   0.926008391  -0.007910356
C        0.840293965   0.926008391  -0.007910356
K_POINTS automatic 
  16 16 1   0 0 0 

