 &CONTROL
                 calculation = 'bands' ,
                      outdir = './tmp/' ,
                  pseudo_dir = '/home/deleted/pseudo_psl' ,
                      prefix = 'GI_op' ,
                   verbosity = 'high' ,
               etot_conv_thr = 1.0D-5 ,
               forc_conv_thr = 4.0D-4 ,
                       nstep = 1000 ,
                    dipfield = .true. ,
 /
 &SYSTEM
                       ibrav = 4,
                           A = 9.88 ,
                           C = 15 ,
                         nat = 34,
                        ntyp = 4,
                     ecutwfc = 40.424239707 ,
                     ecutrho = 404.24239707 ,
                 occupations = 'tetrahedra' ,
                     degauss = 0.01 ,
				   input_dft = 'vdW-DF' ,
    nspin = 2 ,
    starting_magnetization(1) = 0.5,
    starting_magnetization(2) = 0.5,
    starting_magnetization(3) = 0.5,
 /
 &ELECTRONS
            electron_maxstep = 50001,
                    conv_thr = 1.0D-6 ,
                 mixing_mode = 'local-TF' ,
                 mixing_beta = 0.5 ,
 /
ATOMIC_SPECIES
    C   12.01100  C.revpbe-n-kjpaw_psl.0.1.UPF 
    I  126.90400  I.revpbe-n-kjpaw_psl.0.2.UPF 
    O   15.99940  O.revpbe-n-kjpaw_psl.0.1.UPF 
    H   1.008000  H.revpbe-kjpaw_psl.0.1.UPF
ATOMIC_POSITIONS (crystal)
C        0.001421632  -0.030661915   0.001741429
C        0.247618129  -0.041039752   0.001229689
C        0.504197054  -0.030651849   0.000731089
C        0.760241820  -0.015771431   0.001410877
C        0.010146055   0.225787327   0.000458848
C        0.087700498   0.136485612   0.001391349
C        0.254686884   0.213243098   0.000870076
C        0.328983060   0.121709359   0.000871118
C        0.494861229   0.213208138  -0.000025078
C        0.585080369   0.136436018  -0.000076547
C        0.751879853   0.225756435  -0.000792834
C        0.841544591   0.146844440   0.000455388
C        0.003589981   0.470976426  -0.001218512
C        0.098647962   0.390718049  -0.000861195
C        0.276008158   0.468707225  -0.001268228
C        0.354447900   0.375652415   0.000081512
C        0.557485561   0.375522218  -0.000641768
C        0.728832761   0.468589149  -0.001640388
C        0.828298985   0.390575757  -0.001569171
C       -0.009460031   0.715101342   0.000103399
C        0.085479161   0.634729129  -0.000497558
C        0.260811298   0.715136391  -0.000112065
C        0.360478480   0.637133080  -0.000846241
C        0.531830615   0.730175466   0.000286263
I        0.492032456   0.479560014   0.220244786
C        0.734548727   0.730143117   0.000549482
C        0.812837532   0.637092121  -0.000682599
C        0.078990961   0.879992725   0.001273688
C        0.337309166   0.880025658   0.000806665
C        0.594303986   0.892476888   0.001007492
C        0.834410657   0.892471455   0.001625843
O        0.750314317   1.339160091   0.221334978
O        0.666575036   1.183861387   0.205612015
H        0.670376412   1.374902243   0.227011917
K_POINTS automatic 
  20 20 1   0 0 0 

