 &CONTROL
                 calculation = 'bands' ,
                      outdir = './tmp/' ,
                  pseudo_dir = '/home/deleted/pseudo_psl' ,
                      prefix = 'GI_op' ,
                   verbosity = 'high' ,
               etot_conv_thr = 1.0D-5 ,
               forc_conv_thr = 4.0D-4 ,
                       nstep = 1000 ,
                    dipfield = .true. ,
 /
 &SYSTEM
                       ibrav = 4,
                           A = 9.88 ,
                           C = 15 ,
                         nat = 34,
                        ntyp = 4,
                     ecutwfc = 40.424239707 ,
                     ecutrho = 404.24239707 ,
                 occupations = 'tetrahedra' ,
                     degauss = 0.01 ,
				   input_dft = 'vdW-DF' ,
 /
 &ELECTRONS
            electron_maxstep = 50001,
                    conv_thr = 1.0D-6 ,
                 mixing_mode = 'local-TF' ,
                 mixing_beta = 0.5 ,
 /
ATOMIC_SPECIES
    C   12.01100  C.revpbe-n-kjpaw_psl.0.1.UPF 
    I  126.90400  I.revpbe-n-kjpaw_psl.0.2.UPF 
    O   15.99940  O.revpbe-n-kjpaw_psl.0.1.UPF 
    H   1.008000  H.revpbe-kjpaw_psl.0.1.UPF
ATOMIC_POSITIONS crystal 
C       -0.005323584  -0.006600536  -0.002716293
C        0.240886722  -0.016960565  -0.002233970
C        0.497556646  -0.006529913  -0.002554817
C        0.754175224   0.009202197  -0.003338755
C        0.004202528   0.250374654  -0.002271504
C        0.081241498   0.160786433  -0.002198099
C        0.248177848   0.237360097  -0.002017916
C        0.321938325   0.145070758  -0.001988744
C        0.487996088   0.237445805  -0.002056827
C        0.578445016   0.160935728  -0.002252254
C        0.745129624   0.250423639  -0.002280769
C        0.835125348   0.171301828  -0.002609440
C       -0.002662321   0.495809617  -0.002453541
C        0.092824212   0.415086770  -0.002337129
C        0.270185627   0.492678499  -0.002580031
C        0.348636040   0.399374923  -0.002261047
C        0.549569756   0.399444136  -0.002299373
C        0.721364978   0.492732183  -0.002578486
C        0.821163462   0.415165518  -0.002276471
C       -0.016874356   0.739195514  -0.002857491
C        0.078650072   0.658503095  -0.002699947
C        0.254900155   0.739189843  -0.002772089
C        0.354684243   0.661539215  -0.003046440
C        0.526505943   0.754663970  -0.003286154
I        0.569428252   0.651673727   0.249953888
C        0.727331526   0.754891843  -0.003712233
C        0.805778332   0.661579410  -0.003150514
C        0.071798152   0.903922121  -0.002571465
C        0.330851862   0.903900578  -0.002490246
C        0.587993918   0.916806430  -0.003126275
C        0.827808586   0.916833927  -0.003558384
O        0.697286437   0.996079532   0.229253740
O        0.746954543   0.882012950   0.217313980
H        0.654343227   0.995860739   0.170045581
K_POINTS crystal_b 
4
0.0000000000    0.0000000000    0.0000000000 17
0.0000000000    0.5000000000    0.0000000000 10
0.3333333333    0.3333333333    0.0000000000 20
0.0000000000    0.0000000000    0.0000000000 1

