 &CONTROL
                 calculation = 'bands' ,
                      outdir = './tmp/' ,
                  pseudo_dir = '/home/deleted/pseudo_psl' ,
                      prefix = 'GF_ip' ,
                   verbosity = 'high' ,
               etot_conv_thr = 1.0D-5 ,
               forc_conv_thr = 4.0D-4 ,
                       nstep = 1000 ,
                    dipfield = .true. ,
 /
 &SYSTEM
                       ibrav = 4,
                           A = 9.88 ,
                           C = 15 ,
                         nat = 34,
                        ntyp = 4,
                     ecutwfc = 40.424239707 ,
                     ecutrho = 404.24239707 ,
                 occupations = 'tetrahedra' ,
                     degauss = 0.01 ,
				   input_dft = 'vdW-DF' ,
    nspin = 2 ,
    starting_magnetization(1) = 0.5,
    starting_magnetization(2) = 0.5,
    starting_magnetization(3) = 0.5,
 /
 &ELECTRONS
            electron_maxstep = 50001,
                    conv_thr = 1.0D-6 ,
                 mixing_mode = 'local-TF' ,
                 mixing_beta = 0.5 ,
 /
ATOMIC_SPECIES
    C   12.01100  C.revpbe-n-kjpaw_psl.0.1.UPF 
    F   18.99800  F.revpbe-n-kjpaw_psl.0.1.UPF 
    O   15.99940  O.revpbe-n-kjpaw_psl.0.1.UPF 
    H   1.008000  H.revpbe-kjpaw_psl.0.1.UPF
ATOMIC_POSITIONS (crystal)
C       -0.010295461   0.014171891  -0.004680510
C        0.236791337   0.006987467   0.003507772
C        0.488942691   0.014073077   0.005362618
C        0.738399553   0.016835613  -0.005955570
C       -0.008116707   0.265660934  -0.000241113
C        0.073276010   0.182327840   0.001244141
C        0.242167826   0.263429757   0.002877415
C        0.319614710   0.172628165   0.003676449
C        0.482272681   0.260692391   0.003432002
C        0.570821364   0.180711871   0.001863190
C        0.735143916   0.262353087   0.004228555
C        0.821458893   0.183639626  -0.002467496
C       -0.007722448   0.514706322   0.004343574
C        0.078816470   0.432189460   0.002585647
C        0.253624166   0.514488551   0.006669865
C        0.336546524   0.424298931   0.002910656
C        0.550332944   0.426667031  -0.000722323
C        0.715708247   0.515025933  -0.004976875
C        0.814658169   0.432755304   0.026134495
C       -0.015749555   0.760726637  -0.003589942
C        0.070849587   0.677292638   0.001881940
C        0.238798404   0.759295785   0.006695993
C        0.323896048   0.679008378   0.015443314
C        0.489216002   0.772507463   0.043049100
F        0.612782462   0.707636448  -0.081561622
C        0.754326184   0.776286042  -0.039103510
C        0.816702262   0.681208230  -0.017352034
C        0.068818921   0.925877342  -0.002225799
C        0.321023810   0.926945300   0.007122283
C        0.575414783   0.935793722   0.009234553
C        0.825626928   0.935621744  -0.017763415
O        0.548599844   0.721898594   0.096548326
O        0.821892573   0.448808840   0.125525275
H        0.715928929   0.413780750   0.146788621
K_POINTS automatic 
  20 20 1   0 0 0 

