 &CONTROL
                 calculation = 'nscf' ,
                      outdir = './tmp/' ,
                  pseudo_dir = '/home/deleted/pseudo_psl' ,
                      prefix = 'GF_ip' ,
                   verbosity = 'high' ,
               etot_conv_thr = 1.0D-5 ,
               forc_conv_thr = 4.0D-4 ,
                       nstep = 1000 ,
                    dipfield = .true. ,
 /
 &SYSTEM
                       ibrav = 4,
                           A = 9.88 ,
                           C = 15 ,
                         nat = 33,
                        ntyp = 3,
                     ecutwfc = 40.424239707 ,
                     ecutrho = 404.24239707 ,
                 occupations = 'tetrahedra' ,
                     degauss = 0.01 ,
				   input_dft = 'vdW-DF' ,
    nspin = 2 ,
    starting_magnetization(1) = 0.5,
    starting_magnetization(2) = 0.5,
    starting_magnetization(3) = 0.5,
 /
 &ELECTRONS
            electron_maxstep = 50001,
                    conv_thr = 1.0D-6 ,
                 mixing_mode = 'local-TF' ,
                 mixing_beta = 0.5 ,
 /
ATOMIC_SPECIES
    C   12.01100  C.revpbe-n-kjpaw_psl.0.1.UPF 
    F   18.99800  F.revpbe-n-kjpaw_psl.0.1.UPF 
    O   15.99940  O.revpbe-n-kjpaw_psl.0.1.UPF 
ATOMIC_POSITIONS (crystal)
C        0.001223503  -0.001638608  -0.002112391
C        0.244961360  -0.010077279  -0.004446813
C        0.497137888  -0.001638608  -0.002112391
C        0.752097620   0.004195239   0.004065171
C        0.002290270   0.249105659  -0.000950310
C        0.084334742   0.164596410  -0.002645106
C        0.251120866   0.242910848  -0.004227533
C        0.326358255   0.152716510  -0.004849048
C        0.491789982   0.242910848  -0.004227533
C        0.580261667   0.164596410  -0.002645106
C        0.746815389   0.249105659  -0.000950310
C        0.834176520   0.168353041   0.000976395
C       -0.002262089   0.495475824  -0.001807617
C        0.088868102   0.414318891  -0.001548304
C        0.263353120   0.493479121  -0.001662736
C        0.346479473   0.404996948  -0.003348216
C        0.558517474   0.404996948  -0.003348216
C        0.730126001   0.493479121  -0.001662736
C        0.825450788   0.414318891  -0.001548304
C       -0.005352040   0.742898763  -0.003002062
C        0.080248725   0.660497450  -0.003276922
C        0.248250802   0.742898763  -0.003002062
C        0.336505367   0.661228923  -0.000375962
C        0.495801099   0.760918433   0.003167688
F        0.589256638   0.678513278   0.023229778
C        0.765117333   0.760918433   0.003167688
C        0.824723555   0.661228923  -0.000375962
C        0.078325108   0.909022024  -0.003480480
C        0.330696914   0.909022024  -0.003480480
C        0.585722839   0.920743509   0.002660081
C        0.835020668   0.920743509   0.002660081
O        0.559505930   0.619011859   0.215713279
O        0.486409453   0.472818907   0.205446442
K_POINTS automatic 
  20 20 1   0 0 0 

