 &CONTROL
                 calculation = 'scf' ,
                      outdir = './tmp_subs/' ,
                  pseudo_dir = '/home/deleted/pseudo_psl' ,
                      prefix = 'GI_op_subs' ,
                   verbosity = 'high' ,
               etot_conv_thr = 1.0D-5 ,
               forc_conv_thr = 4.0D-4 ,
                       nstep = 1000 ,
                    dipfield = .true. ,
 /
 &SYSTEM
                       ibrav = 4,
                           A = 9.88 ,
                           C = 15 ,
                         nat = 31,
                        ntyp = 2,
                     ecutwfc = 40.424239707 ,
                     ecutrho = 404.24239707 ,
                 occupations = 'smearing' ,
                     degauss = 0.01 ,
				   input_dft = 'vdW-DF' ,
 /
 &ELECTRONS
            electron_maxstep = 50001,
                    conv_thr = 1.0D-6 ,
                 mixing_mode = 'local-TF' ,
                 mixing_beta = 0.5 ,
 /
ATOMIC_SPECIES
    C   12.01100  C.revpbe-n-kjpaw_psl.0.1.UPF 
    I  126.90400  I.revpbe-n-kjpaw_psl.0.2.UPF 
ATOMIC_POSITIONS crystal 
C       -0.001416425   0.000034478  -0.004464073
C        0.244825084  -0.010349832  -0.004160466
C        0.501450903   0.000034478  -0.004464073
C        0.757667661   0.015335321  -0.005152895
C        0.007671659   0.256687566  -0.004571453
C        0.084971368   0.167232820  -0.004406396
C        0.251936128   0.243939166  -0.004426945
C        0.325992214   0.151984431  -0.004240041
C        0.492003038   0.243939166  -0.004426945
C        0.582261451   0.167232820  -0.004406396
C        0.749015908   0.256687566  -0.004571453
C        0.838793673   0.177587349  -0.004750336
C        0.001002678   0.502005358  -0.004760329
C        0.096188423   0.421462736  -0.004737575
C        0.273776020   0.499282049  -0.004948941
C        0.351873153   0.406051778  -0.004751740
C        0.554178625   0.406051778  -0.004751740
C        0.725506029   0.499282049  -0.004948941
C        0.825274311   0.421462736  -0.004737575
C       -0.012559155   0.745828937  -0.004618483
C        0.082652221   0.665304441  -0.004694754
C        0.258388092   0.745828937  -0.004618483
C        0.358209961   0.668063648  -0.004871047
C        0.529550745   0.761284730  -0.004797434
I        0.530999905   0.561999811   0.238928938
C        0.731733984   0.761284730  -0.004797434
C        0.809853687   0.668063648  -0.004871047
C        0.075928169   0.910598236  -0.004325663
C        0.334670065   0.910598236  -0.004325663
C        0.591731158   0.923402491  -0.004878334
C        0.831671333   0.923402491  -0.004878334
K_POINTS automatic 
  16 16 1   0 0 0 

