 &CONTROL
                 calculation = 'nscf' ,
                      outdir = './tmp/' ,
                  pseudo_dir = '/home/deleted/pseudo_psl' ,
                      prefix = 'GF_op' ,
                   verbosity = 'high' ,
               etot_conv_thr = 1.0D-5 ,
               forc_conv_thr = 4.0D-4 ,
                       nstep = 1000 ,
                    dipfield = .true. ,
 /
 &SYSTEM
                       ibrav = 4,
                           A = 9.88 ,
                           C = 15 ,
                         nat = 33,
                        ntyp = 3,
                     ecutwfc = 40.424239707 ,
                     ecutrho = 404.24239707 ,
                 occupations = 'tetrahedra' ,
                     degauss = 0.01 ,
				   input_dft = 'vdW-DF' ,
 /
 &ELECTRONS
            electron_maxstep = 50001,
                    conv_thr = 1.0D-6 ,
                 mixing_mode = 'local-TF' ,
                 mixing_beta = 0.5 ,
 /
ATOMIC_SPECIES
    C   12.01100  C.revpbe-n-kjpaw_psl.0.1.UPF 
    F   18.99800  F.revpbe-n-kjpaw_psl.0.1.UPF 
    O   15.99940  O.revpbe-n-kjpaw_psl.0.1.UPF 
ATOMIC_POSITIONS crystal 
C        0.000184509   0.007975171   0.005469066
C        0.249055966   0.005603574   0.011406848
C        0.499802277   0.008053725   0.011452942
C        0.748760535   0.008931703   0.002560350
C        0.000353133   0.258466726   0.005790506
C        0.081955725   0.174238948   0.010523228
C        0.248254890   0.255158134   0.012768585
C        0.331298287   0.171175247   0.010479540
C        0.497315113   0.254714028   0.005295429
C        0.582584942   0.173887596   0.003679550
C        0.748656515   0.258506912   0.002253248
C        0.832782907   0.175364733   0.002356961
C       -0.001014707   0.507613869   0.005023762
C        0.084719863   0.424940055   0.009703927
C        0.253841034   0.508640045   0.019626958
C        0.332038602   0.418714748   0.015461930
C        0.577609193   0.418913445   0.001434373
C        0.743930383   0.507458431  -0.007650177
C        0.830202759   0.425084407  -0.000777410
C       -0.001738544   0.757600221   0.002264171
C        0.081760725   0.673607683   0.008294522
C        0.248874826   0.756060467   0.016870230
C        0.332357249   0.674664144   0.028000403
C        0.497960446   0.769008519   0.056280122
F        0.635606816   0.713302925  -0.085648430
C        0.767801693   0.771090893  -0.034400907
C        0.832392279   0.676399830  -0.014312199
C        0.081850364   0.923311972   0.006713355
C        0.332410938   0.923763318   0.015110458
C        0.584742255   0.928270856   0.017755217
C        0.835803555   0.927812071  -0.008107929
O        0.492991167   0.494404911   0.010733046
O        0.557476843   0.724901090   0.114022906
K_POINTS automatic 
  20 20 1   0 0 0 

