 &CONTROL
                 calculation = 'scf' ,
                      outdir = './tmp/' ,
                  pseudo_dir = '/home/deleted/pseudo_psl' ,
                      prefix = 'GF_ip' ,
                   verbosity = 'high' ,
               etot_conv_thr = 1.0D-5 ,
               forc_conv_thr = 4.0D-4 ,
                       nstep = 1000 ,
                    dipfield = .true. ,
 /
 &SYSTEM
                       ibrav = 4,
                           A = 9.88 ,
                           C = 15 ,
                         nat = 34,
                        ntyp = 4,
                     ecutwfc = 40.424239707 ,
                     ecutrho = 404.24239707 ,
                 occupations = 'smearing' ,
                     degauss = 0.01 ,
				   input_dft = 'vdW-DF' ,
    nspin = 2 ,
    starting_magnetization(1) = 0.5,
    starting_magnetization(2) = 0.5,
    starting_magnetization(3) = 0.5,
 /
 &ELECTRONS
            electron_maxstep = 50001,
                    conv_thr = 1.0D-6 ,
                 mixing_mode = 'local-TF' ,
                 mixing_beta = 0.5 ,
 /
ATOMIC_SPECIES
    C   12.01100  C.revpbe-n-kjpaw_psl.0.1.UPF 
    F   18.99800  F.revpbe-n-kjpaw_psl.0.1.UPF 
    O   15.99940  O.revpbe-n-kjpaw_psl.0.1.UPF 
    H   1.008000  H.revpbe-kjpaw_psl.0.1.UPF
ATOMIC_POSITIONS (crystal)
C        0.008048390   0.017867574   0.006365823
C        0.257039473   0.015235705   0.013639850
C        0.506901475   0.019196063   0.018322550
C        0.754976781   0.018513534   0.007600580
C        0.008324895   0.268828097   0.006225517
C        0.090657341   0.185549005   0.009899387
C        0.258591728   0.268989787   0.012284803
C        0.339929897   0.181444826   0.016080182
C        0.502508926   0.264939188   0.021032853
C        0.588963886   0.185619970   0.014662236
C        0.755470655   0.268649824   0.011040037
C        0.839016258   0.186074250   0.006629556
C        0.007508790   0.518183175   0.005878451
C        0.093518774   0.435129252   0.008838520
C        0.265100479   0.517661738   0.017381734
C        0.346377577   0.430922135   0.011195448
C        0.581784854   0.434106385   0.038219088
C        0.752627077   0.519692581   0.003134574
C        0.837035537   0.436979180   0.005672529
C        0.008117005   0.767783596   0.002915276
C        0.090676342   0.683734638   0.008301607
C        0.257451370   0.765530996   0.017908159
C        0.339676809   0.683775855   0.027828116
C        0.503409792   0.776126074   0.056423252
F        0.628526495   0.703987861  -0.064448630
C        0.772124444   0.777421134  -0.024529325
C        0.841177257   0.685146675  -0.007506377
C        0.090125063   0.933631461   0.006630369
C        0.340070477   0.933827328   0.019195179
C        0.592139457   0.938923211   0.023038958
C        0.841805481   0.936207007  -0.003899993
O        0.579801110   0.466752156   0.128548769
O        0.563553077   0.727550333   0.111905852
H        0.580222917   0.566961437   0.134136052
K_POINTS automatic 
  16 16 1   0 0 0 

