 &CONTROL
                 calculation = 'scf' ,
                      outdir = './tmp_subs/' ,
                  pseudo_dir = '/home/deleted/pseudo_psl' ,
                      prefix = 'GBr_op-subs' ,
                   verbosity = 'high' ,
               etot_conv_thr = 1.0D-5 ,
               forc_conv_thr = 4.0D-4 ,
                       nstep = 1000 ,
                    dipfield = .true. ,
 /
 &SYSTEM
                       ibrav = 4,
                           A = 9.88 ,
                           C = 15 ,
                         nat = 31,
                        ntyp = 2,
                     ecutwfc = 40.424239707 ,
                     ecutrho = 404.24239707 ,
                 occupations = 'smearing' ,
                     degauss = 0.01 ,
				   input_dft = 'vdW-DF' ,
    nspin = 2 ,
    starting_magnetization(1) = 0.5,
    starting_magnetization(2) = 0.5,
 /
 &ELECTRONS
            electron_maxstep = 50001,
                    conv_thr = 1.0D-6 ,
                 mixing_mode = 'local-TF' ,
                 mixing_beta = 0.5 ,
 /
ATOMIC_SPECIES
    C   12.01100  C.revpbe-n-kjpaw_psl.0.1.UPF 
   Br   79.90350  Br.revpbe-n-kjpaw_psl.0.2.UPF 
ATOMIC_POSITIONS (crystal)
C        0.000644923   0.004174522  -0.005493476
C        0.246842765  -0.006314469  -0.005108831
C        0.503529599   0.004174522  -0.005493476
C        0.759647328   0.019294655  -0.005853829
C        0.009683568   0.260812475  -0.005236658
C        0.087129618   0.171422791  -0.005230735
C        0.254122594   0.248175653  -0.005257239
C        0.328103227   0.156206456  -0.005080568
C        0.494053058   0.248175653  -0.005257239
C        0.584293172   0.171422791  -0.005230735
C        0.751128906   0.260812475  -0.005236658
C        0.840939292   0.181878587  -0.005360573
C        0.003023779   0.506047559  -0.005312330
C        0.098241160   0.425677046  -0.005281721
C        0.276218515   0.503623569  -0.005593366
C        0.354432831   0.410353712  -0.005677900
C        0.555920880   0.410353712  -0.005677900
C        0.727405054   0.503623569  -0.005593366
C        0.827435887   0.425677046  -0.005281721
C       -0.010512241   0.749941832  -0.005500214
C        0.084802482   0.669604965  -0.005479842
C        0.260454074   0.749941832  -0.005500214
C        0.360311886   0.672248805  -0.005884404
C        0.531861294   0.765327804  -0.006017630
Br       0.548231619   0.596463239   0.234078704
C        0.733466510   0.765327804  -0.006017630
C        0.811936918   0.672248805  -0.005884404
C        0.078103789   0.914780707  -0.005285094
C        0.336676917   0.914780707  -0.005285094
C        0.593805531   0.927645852  -0.006103796
C        0.833840320   0.927645852  -0.006103796
K_POINTS automatic 
  16 16 1   0 0 0 

