 &CONTROL
                 calculation = 'scf' ,
                      outdir = './tmp/' ,
                  pseudo_dir = '/home/deleted/pseudo_psl' ,
                      prefix = 'B1_ip' ,
                    dipfield = .true. ,
                   verbosity = 'high',
                       nstep = 1000,
               forc_conv_thr = 4.0D-4,
               etot_conv_thr = 1.0D-5
 /
 &SYSTEM
                       ibrav = 4,
                           A = 9.88 ,
                           C = 15 ,
                         nat = 31, 
                        ntyp = 2,
                     ecutwfc = 40.424239707 ,
                     ecutrho = 404.24239707 ,
                 occupations = 'smearing' ,
                     degauss = 0.01 ,
				   input_dft = 'vdW-DF' ,
    nspin = 2 ,
    starting_magnetization(1) = 0.5,
	starting_magnetization(2) = 0.5,
 /
 &ELECTRONS
            electron_maxstep = 50001,
                    conv_thr = 1.0D-6 ,
                 mixing_mode = 'local-TF' ,
                 mixing_beta = 0.5 ,
 /
ATOMIC_SPECIES
    C   12.01100  C.revpbe-n-kjpaw_psl.0.1.UPF
    O   15.99940  O.revpbe-n-kjpaw_psl.0.1.UPF 
ATOMIC_POSITIONS crystal 
C        0.001674128   0.000772419   0.000000000
C        0.245850128  -0.008299744   0.000000000
C        0.499098290   0.000772419   0.000000000
C        0.754165705   0.008331409   0.000000000
C        0.004819496   0.253021391   0.000000000
C        0.085736845   0.167196075   0.000000000
C        0.252439757   0.245203452   0.000000000
C        0.327159097   0.154318195   0.000000000
C        0.492763695   0.245203452   0.000000000
C        0.581459229   0.167196075   0.000000000
C        0.748201895   0.253021391   0.000000000
C        0.836214503   0.172429007   0.000000000
C       -0.000219825   0.499560350   0.000000000
C        0.092360335   0.418155056   0.000000000
C        0.268426765   0.498044419   0.000000000
C        0.350802796   0.407314119   0.000000000
C        0.556511322   0.407314119   0.000000000
C        0.729617655   0.498044419   0.000000000
C        0.825794721   0.418155056   0.000000000
C       -0.006310797   0.745630486   0.000000000
C        0.082030232   0.664060464   0.000000000
C        0.251941283   0.745630486   0.000000000
C        0.342505062   0.666247588   0.000000000
C        0.507884921   0.760092446   0.000000000
O        0.591796453   0.683592907   0.000000000
C        0.752207525   0.760092446   0.000000000
C        0.823742525   0.666247588   0.000000000
C        0.078851531   0.911403073   0.000000000
C        0.332551541   0.911403073   0.000000000
C        0.587237563   0.923256518   0.000000000
C        0.836018954   0.923256518   0.000000000
K_POINTS automatic 
  16 16 1   0 0 0 

