 &CONTROL
                 calculation = 'relax' ,
                      outdir = './tmp/' ,
                  pseudo_dir = '/home/deleted/pseudo_psl' ,
                      prefix = 'GCl_op' ,
                   verbosity = 'high' ,
               etot_conv_thr = 1.0D-5 ,
               forc_conv_thr = 4.0D-4 ,
                       nstep = 1000 ,
                    dipfield = .true. ,
 /
 &SYSTEM
                       ibrav = 4,
                           A = 9.88 ,
                           C = 15 ,
                         nat = 33,
                        ntyp = 3,
                     ecutwfc = 40.424239707 ,
                     ecutrho = 404.24239707 ,
                 occupations = 'smearing' ,
                     degauss = 0.01 ,
				   input_dft = 'vdW-DF' ,
 /
 &ELECTRONS
            electron_maxstep = 50001,
                    conv_thr = 1.0D-6 ,
                 mixing_mode = 'local-TF' ,
                 mixing_beta = 0.5 ,
 /
 &IONS
                ion_dynamics = 'bfgs' ,
 /
ATOMIC_SPECIES
    C   12.01100  C.revpbe-n-kjpaw_psl.0.1.UPF 
   Cl   35.45200  Cl.revpbe-n-kjpaw_psl.0.3.0.UPF 
    O   15.99940  O.revpbe-n-kjpaw_psl.0.1.UPF 
ATOMIC_POSITIONS crystal 
C        0.008501078   0.016767547  -0.001578175
C        0.254053410   0.010392587  -0.009314667
C        0.506013094   0.016799009  -0.001008210
C        0.759956398   0.021820586   0.016860390
C        0.009956389   0.267364566   0.000028356
C        0.091862894   0.183016683  -0.004800965
C        0.258944193   0.262832389  -0.009152604
C        0.335611405   0.173551905  -0.011164416
C        0.501749334   0.263009939  -0.008609543
C        0.589110938   0.183053433  -0.004343496
C        0.755379478   0.267364118   0.000376784
C        0.841767356   0.185481945   0.005598067
C        0.006460522   0.514733887  -0.000506818
C        0.096109955   0.432756026  -0.000217562
C        0.269602255   0.513568654   0.001910783
C        0.350840729   0.424830938  -0.004048966
C        0.571807719   0.425074719  -0.004647047
C        0.742047602   0.513596694   0.000967743
C        0.834771052   0.432715211  -0.000179394
C        0.003649028   0.762560713  -0.003284432
C        0.088850737   0.679600298  -0.004667872
C        0.256898699   0.762684681  -0.002849694
C        0.343384716   0.681510854   0.009505921
C        0.501536922   0.777604110   0.029419254
Cl       0.596399838   0.696570563   0.093118597
C        0.770752137   0.776215448   0.024215328
C        0.835835977   0.681667005   0.007064531
C        0.087140156   0.928720160  -0.005584222
C        0.339472116   0.928809757  -0.005178727
C        0.591647432   0.938460177   0.016538925
C        0.844402410   0.938262734   0.014788820
O        0.361801985   0.547190387   0.200051344
O        0.354422475   0.413732708   0.189695103
K_POINTS automatic 
  4 4 1   0 0 0 

