 &CONTROL
                 calculation = 'nscf' ,
                      outdir = './tmp/' ,
                  pseudo_dir = '/home/deleted/pseudo_psl' ,
                      prefix = 'GI_op' ,
                   verbosity = 'high' ,
               etot_conv_thr = 1.0D-5 ,
               forc_conv_thr = 4.0D-4 ,
                       nstep = 1000 ,
                    dipfield = .true. ,
 /
 &SYSTEM
                       ibrav = 4,
                           A = 9.88 ,
                           C = 15 ,
                         nat = 33,
                        ntyp = 3,
                     ecutwfc = 40.424239707 ,
                     ecutrho = 404.24239707 ,
                 occupations = 'tetrahedra' ,
                     degauss = 0.01 ,
				   input_dft = 'vdW-DF' ,
    nspin = 2 ,
    starting_magnetization(1) = 0.5,
    starting_magnetization(2) = 0.5,
    starting_magnetization(3) = 0.5,
 /
 &ELECTRONS
            electron_maxstep = 50001,
                    conv_thr = 1.0D-6 ,
                 mixing_mode = 'local-TF' ,
                 mixing_beta = 0.5 ,
 /
ATOMIC_SPECIES
    C   12.01100  C.revpbe-n-kjpaw_psl.0.1.UPF 
    I  126.90400  I.revpbe-n-kjpaw_psl.0.2.UPF 
    O   15.99940  O.revpbe-n-kjpaw_psl.0.1.UPF 
ATOMIC_POSITIONS (crystal)
C       -0.002047668  -0.001150689  -0.004016028
C        0.244250918  -0.011498164  -0.003741926
C        0.500896979  -0.001150689  -0.004016028
C        0.757160425   0.014320848  -0.004326096
C        0.007228640   0.255604253  -0.003198616
C        0.084432877   0.166132410  -0.003397559
C        0.251417152   0.242784448  -0.003331681
C        0.325318368   0.150636739  -0.003409065
C        0.491367296   0.242784448  -0.003331681
C        0.581699532   0.166132410  -0.003397559
C        0.748375613   0.255604253  -0.003198616
C        0.838215716   0.176431434  -0.003384899
C        0.000547911   0.501095824  -0.003621412
C        0.095821752   0.420396397  -0.003404447
C        0.273254753   0.498154428  -0.003913666
C        0.351550251   0.404856248  -0.003536197
C        0.553305997   0.404856248  -0.003536197
C        0.724899675   0.498154428  -0.003913666
C        0.824574643   0.420396397  -0.003404447
C       -0.013265655   0.744706647  -0.004360490
C        0.082025903   0.664051807  -0.004137206
C        0.257972302   0.744706647  -0.004360490
C        0.357686216   0.667047315  -0.004734951
C        0.529078742   0.760297000  -0.005297860
I        0.566783051   0.633566102   0.241567282
C        0.731218256   0.760297000  -0.005297860
C        0.809361098   0.667047315  -0.004734951
C        0.075232480   0.909416443  -0.004050662
C        0.334183961   0.909416443  -0.004050662
C        0.591151646   0.922251285  -0.004750091
C        0.831099639   0.922251285  -0.004750091
O        0.759377704   0.861868189   0.221852241
O        0.602490486   0.861868189   0.221852241
K_POINTS automatic 
  20 20 1   0 0 0 

