 &CONTROL
                 calculation = 'nscf' ,
                      outdir = './tmp/' ,
                  pseudo_dir = '/home/deleted/pseudo_psl' ,
                      prefix = 'GI_ip' ,
                   verbosity = 'high' ,
               etot_conv_thr = 1.0D-5 ,
               forc_conv_thr = 4.0D-4 ,
                       nstep = 1000 ,
                    dipfield = .true. ,
 /
 &SYSTEM
                       ibrav = 4,
                           A = 9.88 ,
                           C = 15 ,
                         nat = 34,
                        ntyp = 4,
                     ecutwfc = 40.424239707 ,
                     ecutrho = 404.24239707 ,
                 occupations = 'tetrahedra' ,
                     degauss = 0.01 ,
				   input_dft = 'vdW-DF' ,
    nspin = 2 ,
    starting_magnetization(1) = 0.5,
    starting_magnetization(2) = 0.5,
    starting_magnetization(3) = 0.5,
 /
 &ELECTRONS
            electron_maxstep = 50001,
                    conv_thr = 1.0D-6 ,
                 mixing_mode = 'local-TF' ,
                 mixing_beta = 0.5 ,
 /
ATOMIC_SPECIES
    C   12.01100  C.revpbe-n-kjpaw_psl.0.1.UPF 
    I  126.90400  I.revpbe-n-kjpaw_psl.0.2.UPF 
    O   15.99940  O.revpbe-n-kjpaw_psl.0.1.UPF 
    H   1.008000  H.revpbe-kjpaw_psl.0.1.UPF
ATOMIC_POSITIONS (crystal)
C        0.005292913   0.005197383  -0.001690783
C        0.257825179   0.012082730   0.001295752
C        0.503468201   0.004958722  -0.003190148
C        0.751613497  -0.000105669  -0.012190541
C        0.001227428   0.251965976   0.004155209
C        0.087082762   0.172292610  -0.002881206
C        0.253872316   0.258773050  -0.014587334
C        0.340347956   0.177338851  -0.011895969
C        0.508331480   0.258750846  -0.012000216
C        0.588776249   0.172051295  -0.001545243
C        0.754272144   0.251799203   0.005815742
C        0.834318364   0.165099261   0.001464595
C        0.004538094   0.504664987   0.020303912
C        0.082169571   0.418753174   0.010914820
C        0.243443758   0.503562381  -0.006443023
C        0.318494694   0.421683752  -0.025814415
C        0.606092953   0.422234018  -0.019160093
C        0.763103497   0.503502925   0.000077088
C        0.840417016   0.418490300   0.014214496
C        0.010626676   0.758875565   0.013848126
C        0.088601340   0.672736072   0.020061961
C        0.252078642   0.758603655   0.010384186
C        0.328572107   0.673870122  -0.006870252
C        0.485234046   0.755813496  -0.026888574
I        0.547600890   0.588655378  -0.069061251
C        0.773002999   0.755288360  -0.020226706
C        0.848371508   0.673943431  -0.000331847
C        0.091108629   0.925480339   0.005521132
C        0.337933595   0.925289927   0.003736869
C        0.583726754   0.918503821  -0.015130884
C        0.838261086   0.918556370  -0.012508540
O        0.519014504   0.590492459   0.154842607
O        0.395476743   0.614564802   0.182110901
H        0.496062412   0.493857960   0.186025118
K_POINTS automatic 
  20 20 1   0 0 0 

