 &CONTROL
                 calculation = 'bands' ,
                      outdir = './tmp/' ,
                  pseudo_dir = '/home/deleted/pseudo_psl' ,
                      prefix = 'GF_op' ,
                   verbosity = 'high' ,
               etot_conv_thr = 1.0D-5 ,
               forc_conv_thr = 4.0D-4 ,
                       nstep = 1000 ,
                    dipfield = .true. ,
 /
 &SYSTEM
                       ibrav = 4,
                           A = 9.88 ,
                           C = 15 ,
                         nat = 33,
                        ntyp = 3,
                     ecutwfc = 40.424239707 ,
                     ecutrho = 404.24239707 ,
                 occupations = 'tetrahedra' ,
                     degauss = 0.01 ,
				   input_dft = 'vdW-DF' ,
    nspin = 2 ,
    starting_magnetization(1) = 0.5,
    starting_magnetization(2) = 0.5,
    starting_magnetization(3) = 0.5,
 /
 &ELECTRONS
            electron_maxstep = 50001,
                    conv_thr = 1.0D-6 ,
                 mixing_mode = 'local-TF' ,
                 mixing_beta = 0.5 ,
 /
ATOMIC_SPECIES
    C   12.01100  C.revpbe-n-kjpaw_psl.0.1.UPF 
    F   18.99800  F.revpbe-n-kjpaw_psl.0.1.UPF 
    O   15.99940  O.revpbe-n-kjpaw_psl.0.1.UPF 
ATOMIC_POSITIONS (crystal)
C        0.002539789   0.001106556  -0.003184597
C        0.246341234  -0.007288111  -0.005942598
C        0.498515794   0.001093622  -0.004104131
C        0.753393451   0.006936545   0.002702586
C        0.003656149   0.251899094  -0.001702146
C        0.085679193   0.167381657  -0.003551435
C        0.252497358   0.245705723  -0.004810873
C        0.327731424   0.155498458  -0.005797498
C        0.493159149   0.245690859  -0.004856977
C        0.581650167   0.167351844  -0.003818384
C        0.748183712   0.251882266  -0.001852532
C        0.835519480   0.171103254  -0.000070123
C       -0.000857311   0.498311394  -0.002610116
C        0.090230156   0.417136292  -0.002194681
C        0.264687659   0.496336568  -0.002258703
C        0.347804099   0.407824950  -0.003513238
C        0.559927000   0.407802734  -0.003324134
C        0.731571131   0.496286121  -0.001734192
C        0.826872842   0.417122556  -0.002091127
C       -0.003945111   0.745700971  -0.004063219
C        0.081657531   0.663317444  -0.004622440
C        0.249639044   0.745713331  -0.004957922
C        0.337874479   0.664081331  -0.002135805
C        0.497093711   0.763748860   0.000657794
F        0.590624271   0.681583299   0.023461942
C        0.766490789   0.763681227   0.003524583
C        0.826162467   0.664062469  -0.000562652
C        0.079698876   0.911828675  -0.004780590
C        0.332098900   0.911813561  -0.005460575
C        0.587087038   0.923480346   0.000505805
C        0.836346016   0.923525721   0.001914365
O        0.494828123   0.771316028   0.205931261
O        0.503736976   0.761413932   0.289117467
K_POINTS automatic 
  20 20 1   0 0 0 

