 &CONTROL
                 calculation = 'scf' ,
                      outdir = './tmp_subs/' ,
                  pseudo_dir = '/home/deleted/pseudo_psl' ,
                      prefix = 'GI_op-subs' ,
                   verbosity = 'high' ,
               etot_conv_thr = 1.0D-5 ,
               forc_conv_thr = 4.0D-4 ,
                       nstep = 1000 ,
                    dipfield = .true. ,
 /
 &SYSTEM
                       ibrav = 4,
                           A = 9.88 ,
                           C = 15 ,
                         nat = 31,
                        ntyp = 2,
                     ecutwfc = 40.424239707 ,
                     ecutrho = 404.24239707 ,
                 occupations = 'smearing' ,
                     degauss = 0.01 ,
				   input_dft = 'vdW-DF' ,
    nspin = 2 ,
    starting_magnetization(1) = 0.5,
    starting_magnetization(2) = 0.5,
 /
 &ELECTRONS
            electron_maxstep = 50001,
                    conv_thr = 1.0D-6 ,
                 mixing_mode = 'local-TF' ,
                 mixing_beta = 0.5 ,
 /
ATOMIC_SPECIES
    C   12.01100  C.revpbe-n-kjpaw_psl.0.1.UPF 
    I  126.90400  I.revpbe-n-kjpaw_psl.0.2.UPF 
ATOMIC_POSITIONS (crystal)
C       -0.003541255  -0.004264497  -0.004106977
C        0.242693268  -0.014613466  -0.004006894
C        0.499276758  -0.004264497  -0.004106977
C        0.755356659   0.010713316  -0.004641372
C        0.005337579   0.252260299  -0.004247691
C        0.082807047   0.162916952  -0.003940623
C        0.249746341   0.239622021  -0.004139473
C        0.324054197   0.148108395  -0.004109720
C        0.489875681   0.239622021  -0.004139473
C        0.580109903   0.162916952  -0.003940623
C        0.746922720   0.252260299  -0.004247691
C        0.836639662   0.173279325  -0.004270167
C       -0.001216412   0.497567177  -0.005385337
C        0.093882355   0.417211388  -0.005113582
C        0.271105724   0.495151038  -0.005687163
C        0.349552303   0.402027482  -0.004331214
C        0.552475179   0.402027482  -0.004331214
C        0.724045315   0.495151038  -0.005687163
C        0.823329031   0.417211388  -0.005113582
C       -0.014459726   0.741556412  -0.005194478
C        0.080580101   0.661160202  -0.005396008
C        0.256016138   0.741556412  -0.005194478
C        0.355677762   0.663595772  -0.005745017
C        0.527163500   0.756636126  -0.005187835
I        0.491496073   0.482992146   0.210322675
C        0.729472625   0.756636126  -0.005187835
C        0.807918008   0.663595772  -0.005745017
C        0.074030411   0.906434675  -0.004295376
C        0.332404263   0.906434675  -0.004295376
C        0.589436769   0.918907473  -0.004660045
C        0.829470704   0.918907473  -0.004660045
K_POINTS automatic 
  16 16 1   0 0 0 

