 &CONTROL
                 calculation = 'nscf' ,
                      outdir = './tmp/' ,
                  pseudo_dir = '/home/deleted/pseudo_psl' ,
                      prefix = 'GCl_op' ,
                   verbosity = 'high' ,
               etot_conv_thr = 1.0D-5 ,
               forc_conv_thr = 4.0D-4 ,
                       nstep = 1000 ,
                    dipfield = .true. ,
 /
 &SYSTEM
                       ibrav = 4,
                           A = 9.88 ,
                           C = 15 ,
                         nat = 34,
                        ntyp = 4,
                     ecutwfc = 40.424239707 ,
                     ecutrho = 404.24239707 ,
                 occupations = 'tetrahedra' ,
                     degauss = 0.01 ,
				   input_dft = 'vdW-DF' ,
 /
 &ELECTRONS
            electron_maxstep = 50001,
                    conv_thr = 1.0D-6 ,
                 mixing_mode = 'local-TF' ,
                 mixing_beta = 0.5 ,
 /
ATOMIC_SPECIES
    C   12.01100  C.revpbe-n-kjpaw_psl.0.1.UPF 
   Cl   35.45200  Cl.revpbe-n-kjpaw_psl.0.3.0.UPF 
    O   15.99940  O.revpbe-n-kjpaw_psl.0.1.UPF 
    H   1.008000  H.revpbe-kjpaw_psl.0.1.UPF
ATOMIC_POSITIONS crystal 
C        0.003645690   0.001126110  -0.002549645
C        0.249730656  -0.004649934  -0.009355607
C        0.501317497   0.000876887  -0.001184992
C        0.754922258   0.005772733   0.015237608
C        0.005195674   0.251804999  -0.000878932
C        0.087053914   0.167487879  -0.005002206
C        0.254390402   0.247841295  -0.008883493
C        0.331218582   0.158351298  -0.010756067
C        0.497439304   0.247578193  -0.008807944
C        0.584495110   0.167252358  -0.004620989
C        0.750656101   0.251800484  -0.000323158
C        0.836706963   0.169447078   0.004545338
C        0.001909654   0.499656367  -0.001906609
C        0.091306715   0.417326207  -0.001309518
C        0.264632921   0.498379637   0.001028985
C        0.345351013   0.409777779  -0.005054324
C        0.568263679   0.409636673  -0.005586751
C        0.737728069   0.498408018  -0.000455324
C        0.830130629   0.417262720  -0.001376049
C       -0.000938860   0.747437999  -0.004732971
C        0.084386071   0.664416696  -0.006110185
C        0.252742885   0.747490767  -0.004123477
C        0.339231857   0.666660256   0.008078867
C        0.496921070   0.760954184   0.029823443
Cl       0.588211969   0.680326934   0.096674583
C        0.762930989   0.759319362   0.020350637
C        0.831002898   0.667102412   0.004827539
C        0.082567926   0.913485063  -0.006474435
C        0.334969329   0.913492600  -0.005553173
C        0.586586835   0.922127675   0.016084165
C        0.839008932   0.921615320   0.012196582
O        0.369773097   0.731543944   0.215733777
O        0.400646926   0.603725114   0.197636686
H        0.410483163   0.760503677   0.276361178
K_POINTS automatic  
  20 20 1   0 0 0 

