&INPUTPP
                 outdir= './tmp/'
                 prefix = 'GF_ip' ,
                 filplot = 'GF_chgbader'
                 plot_num = 0,
                 spin_component = 0,    
 /
&PLOT
                 nfile = 1 
                 filepp(1) = 'GF_chgbader'
                 weight(1) = 1.0 ,
                 fileout = 'GF_chgbader.cube',
                 iflag  = 3,
                 output_format = 6
 /
