 &CONTROL
                 calculation = 'scf' ,
                      outdir = './tmp/' ,
                  pseudo_dir = '/home/deleted/pseudo_psl' ,
                      prefix = 'GF_ip' ,
                   verbosity = 'high' ,
               etot_conv_thr = 1.0D-5 ,
               forc_conv_thr = 4.0D-4 ,
                       nstep = 1000 ,
                    dipfield = .true. ,
 /
 &SYSTEM
                       ibrav = 4,
                           A = 9.88 ,
                           C = 15 ,
                         nat = 32,
                        ntyp = 3,
                     ecutwfc = 40.424239707 ,
                     ecutrho = 404.24239707 ,
                 occupations = 'smearing' ,
                     degauss = 0.01 ,
				   input_dft = 'vdW-DF' ,
 /
 &ELECTRONS
            electron_maxstep = 50001,
                    conv_thr = 1.0D-6 ,
                 mixing_mode = 'local-TF' ,
                 mixing_beta = 0.5 ,
 /
ATOMIC_SPECIES
    C   12.01100  C.revpbe-n-kjpaw_psl.0.1.UPF 
    F   18.99800  F.revpbe-n-kjpaw_psl.0.1.UPF 
    O   15.99940  O.revpbe-n-kjpaw_psl.0.1.UPF 
ATOMIC_POSITIONS crystal 
C       -0.000330479   0.000176505  -0.001620908
C        0.246565954  -0.005139172   0.006174705
C        0.498431783   0.000719528   0.010030650
C        0.748045317   0.002199895  -0.000888758
C        0.000932792   0.251269069  -0.001808585
C        0.083154722   0.167198863   0.001756927
C        0.251077896   0.248583592   0.003586889
C        0.328117539   0.158902732   0.004670894
C        0.493722606   0.247833263   0.002595172
C        0.580345898   0.167102711   0.002678125
C        0.746544136   0.251334110   0.000251154
C        0.832175141   0.168672367  -0.001925036
C       -0.002356987   0.498965747  -0.000188034
C        0.087081910   0.417195331   0.001067153
C        0.262068675   0.500341461   0.008823769
C        0.343658796   0.410686836   0.004583740
C        0.563585624   0.410683112  -0.001413762
C        0.733210569   0.498674675  -0.007830374
C        0.825726351   0.417233746  -0.002618572
C       -0.004342186   0.747729914  -0.001939939
C        0.080496580   0.664557139   0.003048984
C        0.247925892   0.745967867   0.011298139
C        0.333064990   0.665409476   0.020136167
C        0.497706827   0.757907404   0.048841382
F        0.621341449   0.691712297  -0.076025563
C        0.763337718   0.760996244  -0.033987444
C        0.828719769   0.667334499  -0.015376131
C        0.079332560   0.913326161   0.000757813
C        0.330840640   0.913762996   0.011564332
C        0.584456233   0.921677604   0.015596768
C        0.834174393   0.920121182  -0.012686121
O        0.557418742   0.704873802   0.100846458
K_POINTS automatic 
  16 16 1   0 0 0 

