 &CONTROL
                 calculation = 'bands' ,
                      outdir = './tmp/' ,
                  pseudo_dir = '/home/deleted/pseudo_psl' ,
                      prefix = 'GF_ip' ,
                   verbosity = 'high' ,
               etot_conv_thr = 1.0D-5 ,
               forc_conv_thr = 4.0D-4 ,
                       nstep = 1000 ,
                    dipfield = .true. ,
 /
 &SYSTEM
                       ibrav = 4,
                           A = 9.88 ,
                           C = 15 ,
                         nat = 33,
                        ntyp = 3,
                     ecutwfc = 40.424239707 ,
                     ecutrho = 404.24239707 ,
                 occupations = 'tetrahedra' ,
                     degauss = 0.01 ,
				   input_dft = 'vdW-DF' ,
 /
 &ELECTRONS
            electron_maxstep = 50001,
                    conv_thr = 1.0D-6 ,
                 mixing_mode = 'local-TF' ,
                 mixing_beta = 0.5 ,
 /
ATOMIC_SPECIES
    C   12.01100  C.revpbe-n-kjpaw_psl.0.1.UPF 
    F   18.99800  F.revpbe-n-kjpaw_psl.0.1.UPF 
    O   15.99940  O.revpbe-n-kjpaw_psl.0.1.UPF 
ATOMIC_POSITIONS crystal 
C       -0.007603336  -0.002496714   0.009773668
C        0.241281839  -0.004855533   0.015802628
C        0.492057954  -0.002362814   0.015660564
C        0.741004641  -0.001519754   0.006651770
C       -0.007454361   0.248027665   0.009913855
C        0.074118861   0.163780536   0.014726791
C        0.240431730   0.244698536   0.017002180
C        0.323469265   0.160709297   0.014853667
C        0.489521180   0.244271732   0.009609579
C        0.574799951   0.163470106   0.007955496
C        0.740887089   0.248076683   0.006475048
C        0.824982086   0.164923097   0.006510414
C       -0.008756682   0.497209048   0.009250074
C        0.076936802   0.414510733   0.013797404
C        0.246061552   0.498204396   0.023700670
C        0.324249780   0.408269159   0.019589030
C        0.569875941   0.408472055   0.005770664
C        0.736214569   0.497034411  -0.003264290
C        0.822468899   0.414664340   0.003520388
C       -0.009459479   0.747163636   0.006633445
C        0.074039246   0.663189461   0.012605708
C        0.241134429   0.745642344   0.021123552
C        0.324590307   0.664213997   0.032111680
C        0.490186174   0.758606420   0.060398322
F        0.628125412   0.702844712  -0.081620781
C        0.760164276   0.760642325  -0.030237333
C        0.824698245   0.665967717  -0.009967209
C        0.074086717   0.912855653   0.011096767
C        0.324671632   0.913341513   0.019421906
C        0.576987471   0.917824171   0.021813723
C        0.828047533   0.917344566  -0.003942679
O        0.549609646   0.714645743   0.118259640
O        0.485237289   0.483964100   0.015003659
K_POINTS crystal_b 
4
0.0000000000    0.0000000000    0.0000000000 17
0.0000000000    0.5000000000    0.0000000000 10
0.3333333333    0.3333333333    0.0000000000 20
0.0000000000    0.0000000000    0.0000000000 1

