 &CONTROL
                 calculation = 'bands' ,
                      outdir = './tmp/' ,
                  pseudo_dir = '/home/deleted/pseudo_psl' ,
                      prefix = 'GI_op' ,
                   verbosity = 'high' ,
               etot_conv_thr = 1.0D-5 ,
               forc_conv_thr = 4.0D-4 ,
                       nstep = 1000 ,
                    dipfield = .true. ,
 /
 &SYSTEM
                       ibrav = 4,
                           A = 9.88 ,
                           C = 15 ,
                         nat = 33,
                        ntyp = 3,
                     ecutwfc = 40.424239707 ,
                     ecutrho = 404.24239707 ,
                 occupations = 'tetrahedra' ,
                     degauss = 0.01 ,
				   input_dft = 'vdW-DF' ,
    nspin = 2 ,
    starting_magnetization(1) = 0.5,
    starting_magnetization(2) = 0.5,
    starting_magnetization(3) = 0.5,
 /
 &ELECTRONS
            electron_maxstep = 50001,
                    conv_thr = 1.0D-6 ,
                 mixing_mode = 'local-TF' ,
                 mixing_beta = 0.5 ,
 /
ATOMIC_SPECIES
    C   12.01100  C.revpbe-n-kjpaw_psl.0.1.UPF 
    I  126.90400  I.revpbe-n-kjpaw_psl.0.2.UPF 
    O   15.99940  O.revpbe-n-kjpaw_psl.0.1.UPF 
ATOMIC_POSITIONS (crystal)
C       -0.001793543  -0.000176027  -0.005701435
C        0.244370829  -0.010629541  -0.004870296
C        0.501009631  -0.000186046  -0.004905139
C        0.757264560   0.015071742  -0.005732300
C        0.007277403   0.256489732  -0.005322642
C        0.084588133   0.167013802  -0.005307297
C        0.251551765   0.243704374  -0.005175604
C        0.325550580   0.151715079  -0.004735736
C        0.491550909   0.243732574  -0.004755475
C        0.581818839   0.167035041  -0.004749761
C        0.748612671   0.256499792  -0.004996586
C        0.838413930   0.177416103  -0.005232596
C        0.000590006   0.501772284  -0.005620232
C        0.095856951   0.421283162  -0.005626764
C        0.273473669   0.499007807  -0.006128740
C        0.351596190   0.405825514  -0.005723275
C        0.553620506   0.405887394  -0.005306629
C        0.724965658   0.499132736  -0.005821424
C        0.824876704   0.421276685  -0.005402413
C       -0.013007979   0.745565327  -0.005949025
C        0.082231400   0.665086753  -0.005730979
C        0.257939462   0.745557296  -0.005513733
C        0.357885198   0.667809925  -0.006026381
C        0.529162621   0.761028904  -0.006032221
I        0.709760454   0.744044305   0.247954488
C        0.731501816   0.761125460  -0.006713297
C        0.809455334   0.667872617  -0.006525761
C        0.075523887   0.910342715  -0.005419402
C        0.334212712   0.910326369  -0.004998827
C        0.591296140   0.923141496  -0.005489279
C        0.831323790   0.923193700  -0.006440920
O        0.311455238   0.519825121   0.210056332
O        0.402731197   0.566541145   0.274610015
K_POINTS automatic 
  20 20 1   0 0 0 

