 &CONTROL
                 calculation = 'nscf' ,
                      outdir = './tmp/' ,
                  pseudo_dir = '/home/deleted/pseudo_psl' ,
                      prefix = 'GF_op' ,
                   verbosity = 'high' ,
               etot_conv_thr = 1.0D-5 ,
               forc_conv_thr = 4.0D-4 ,
                       nstep = 1000 ,
                    dipfield = .true. ,
 /
 &SYSTEM
                       ibrav = 4,
                           A = 9.88 ,
                           C = 15 ,
                         nat = 34,
                        ntyp = 4,
                     ecutwfc = 40.424239707 ,
                     ecutrho = 404.24239707 ,
                 occupations = 'tetrahedra' ,
                     degauss = 0.01 ,
				   input_dft = 'vdW-DF' ,
 /
 &ELECTRONS
            electron_maxstep = 50001,
                    conv_thr = 1.0D-6 ,
                 mixing_mode = 'local-TF' ,
                 mixing_beta = 0.5 ,
 /
ATOMIC_SPECIES
    C   12.01100  C.revpbe-n-kjpaw_psl.0.1.UPF 
    F   18.99800  F.revpbe-n-kjpaw_psl.0.1.UPF 
    O   15.99940  O.revpbe-n-kjpaw_psl.0.1.UPF 
	H   1.00800   H.revpbe-kjpaw_psl.0.1.UPF
ATOMIC_POSITIONS crystal 
C        0.004191769   0.007332225   0.006119128
C        0.253191853   0.004710286   0.013300876
C        0.503054919   0.008649882   0.018304093
C        0.751106117   0.007979404   0.007637939
C        0.004472928   0.258294412   0.006035897
C        0.086809399   0.175009431   0.009632062
C        0.254751836   0.258455254   0.011885816
C        0.336095796   0.170914643   0.015594137
C        0.498654174   0.254393418   0.020529076
C        0.585137670   0.175078517   0.014448951
C        0.751646631   0.258177865   0.010848665
C        0.835156015   0.175555579   0.006552170
C        0.003676137   0.507688074   0.005614928
C        0.089670647   0.424597576   0.008636491
C        0.261239894   0.507100598   0.017266001
C        0.342557032   0.420377540   0.010950852
C        0.577891452   0.423594374   0.037682906
C        0.748776362   0.509206963   0.002565547
C        0.833202811   0.426513053   0.005332511
C        0.004254074   0.757268519   0.002577576
C        0.086824202   0.673240920   0.008081981
C        0.253569356   0.755010927   0.017863972
C        0.335737466   0.673200974   0.027840617
C        0.499490166   0.765455540   0.056411386
F        0.624539253   0.693587734  -0.064650240
C        0.768259117   0.766977839  -0.024865800
C        0.837337778   0.674665243  -0.007997085
C        0.086274217   0.923106951   0.006318656
C        0.336223188   0.923320054   0.019072658
C        0.588253807   0.928337586   0.023122015
C        0.837922062   0.925687364  -0.004051933
O        0.559626237   0.716596337   0.111725166
O        0.576458565   0.456182617   0.128086234
H        0.577138848   0.556509075   0.133801001
K_POINTS automatic
  20 20 1   0 0 0 

