 &CONTROL
                 calculation = 'bands' ,
                      outdir = './tmp/' ,
                  pseudo_dir = '/home/deleted/pseudo_psl' ,
                      prefix = 'GF_op' ,
                   verbosity = 'high' ,
               etot_conv_thr = 1.0D-5 ,
               forc_conv_thr = 4.0D-4 ,
                       nstep = 1000 ,
                    dipfield = .true. ,
 /
 &SYSTEM
                       ibrav = 4,
                           A = 9.88 ,
                           C = 15 ,
                         nat = 33,
                        ntyp = 3,
                     ecutwfc = 40.424239707 ,
                     ecutrho = 404.24239707 ,
                 occupations = 'tetrahedra' ,
                     degauss = 0.01 ,
				   input_dft = 'vdW-DF' ,
 /
 &ELECTRONS
            electron_maxstep = 50001,
                    conv_thr = 1.0D-6 ,
                 mixing_mode = 'local-TF' ,
                 mixing_beta = 0.5 ,
 /
ATOMIC_SPECIES
    C   12.01100  C.revpbe-n-kjpaw_psl.0.1.UPF 
    F   18.99800  F.revpbe-n-kjpaw_psl.0.1.UPF 
    O   15.99940  O.revpbe-n-kjpaw_psl.0.1.UPF 
ATOMIC_POSITIONS crystal 
C        0.003356744   0.003205040  -0.001021699
C        0.247752479  -0.004495044  -0.006402118
C        0.499848295   0.003205040  -0.001021699
C        0.754444626   0.008889252   0.010294643
C        0.003735509   0.254499387   0.005584871
C        0.086507448   0.169380371  -0.000862340
C        0.249032410   0.244583417  -0.003458191
C        0.329732987   0.159465976  -0.007473476
C        0.495551007   0.244583417  -0.003458191
C        0.582872922   0.169380371  -0.000862340
C        0.750763878   0.254499387   0.005584871
C        0.837114609   0.174229219   0.006673608
C        0.000576195   0.501152388   0.009558920
C        0.090105614   0.419833611   0.009329270
C        0.259785306   0.500460781   0.012126620
C        0.351525540   0.415227307   0.008324394
C        0.563701767   0.415227307   0.008324394
C        0.740675476   0.500460781   0.012126620
C        0.829727997   0.419833611   0.009329270
C       -0.001969874   0.749328555   0.003964866
C        0.083252593   0.666505187   0.005566142
C        0.251298429   0.749328555   0.003964866
C        0.338199666   0.666155596   0.011909598
C        0.498535268   0.766813096   0.016675885
F        0.599340434   0.698680868   0.050240356
C        0.768277829   0.766813096   0.016675885
C        0.827955929   0.666155596   0.011909598
C        0.081360710   0.914936645  -0.002263052
C        0.333575934   0.914936645  -0.002263052
C        0.587703248   0.925819451   0.009205661
C        0.838116202   0.925819451   0.009205661
O        0.485552027   0.471104053  -0.056791938
O        0.465324126   0.430648252   0.082635431
K_POINTS crystal_b 
4
0.0000000000    0.0000000000    0.0000000000 17
0.0000000000    0.5000000000    0.0000000000 10
0.3333333333    0.3333333333    0.0000000000 20
0.0000000000    0.0000000000    0.0000000000 1

