 &CONTROL
                 calculation = 'bands' ,
                      outdir = './tmp/' ,
                  pseudo_dir = '/home/deleted/pseudo_psl' ,
                      prefix = 'GBr_ip' ,
                   verbosity = 'high' ,
               etot_conv_thr = 1.0D-5 ,
               forc_conv_thr = 4.0D-4 ,
                       nstep = 1000 ,
                    dipfield = .true. ,
 /
 &SYSTEM
                       ibrav = 4,
                           A = 9.88 ,
                           C = 15 ,
                         nat = 34,
                        ntyp = 4,
                     ecutwfc = 40.424239707 ,
                     ecutrho = 404.24239707 ,
                 occupations = 'tetrahedra' ,
                     degauss = 0.01 ,
				   input_dft = 'vdW-DF' ,
 /
 &ELECTRONS
            electron_maxstep = 50001,
                    conv_thr = 1.0D-6 ,
                 mixing_mode = 'local-TF' ,
                 mixing_beta = 0.5 ,
 /
ATOMIC_SPECIES
    C   12.01100  C.revpbe-n-kjpaw_psl.0.1.UPF 
   Br   79.90350  Br.revpbe-n-kjpaw_psl.0.2.UPF 
    O   15.99940  O.revpbe-n-kjpaw_psl.0.1.UPF 
    H   1.008000  H.revpbe-kjpaw_psl.0.1.UPF
ATOMIC_POSITIONS crystal 
C        0.007275610   0.007199447   0.001841786
C        0.259918055   0.014001545   0.004475489
C        0.505758398   0.007324907   0.003336577
C        0.753686039   0.001590963  -0.002061645
C        0.003411522   0.254088108   0.007006838
C        0.089170288   0.174178659   0.002948055
C        0.257085086   0.261635681  -0.001602631
C        0.342940363   0.179952545  -0.002041361
C        0.510469891   0.261719842  -0.003310035
C        0.590816756   0.174292584   0.002245760
C        0.756462430   0.254138409   0.005857187
C        0.836647596   0.167543813   0.004633478
C        0.006169965   0.506748022   0.014014686
C        0.083732360   0.420589595   0.011953196
C        0.247410427   0.505847038   0.006992918
C        0.325581628   0.425451043  -0.002926411
C        0.605920737   0.425279020  -0.007587154
C        0.764576440   0.505852910   0.001406359
C        0.842655930   0.420721132   0.009072607
C        0.012721100   0.760835092   0.008816901
C        0.090238006   0.674841703   0.014009817
C        0.253982022   0.760986575   0.011993901
C        0.332340831   0.675816177   0.006761222
C        0.490779120   0.756086275  -0.003681837
Br       0.547783006   0.590905914  -0.027041344
C        0.771437153   0.756220053  -0.008218506
C        0.849588281   0.675715172   0.001060149
C        0.093122697   0.927431695   0.005482799
C        0.340127221   0.927493550   0.007140377
C        0.586170698   0.919862384  -0.001663446
C        0.839432344   0.919773433  -0.003676447
O        0.497345843   0.457183414   0.179294545
O        0.570285339   0.609215578   0.138620462
H        0.397290015   0.444144128   0.199872936
K_POINTS crystal_b 
4
0.0000000000    0.0000000000    0.0000000000 17
0.0000000000    0.5000000000    0.0000000000 10
0.3333333333    0.3333333333    0.0000000000 20
0.0000000000    0.0000000000    0.0000000000 1

