 &CONTROL
                 calculation = 'scf' ,
                      outdir = './tmp_subs/' ,
                  pseudo_dir = '/home/deleted/pseudo_psl' ,
                      prefix = 'GF_ip-subs' ,
                    dipfield = .true. ,
                   verbosity = 'high',
                       nstep = 1000,
               forc_conv_thr = 4.0D-4,
               etot_conv_thr = 1.0D-5
 /
 &SYSTEM
                       ibrav = 4,
                           A = 9.88 ,
                           C = 15 ,
                         nat = 31,
                        ntyp = 1,
                     ecutwfc = 40.424239707 ,
                     ecutrho = 404.24239707 ,
                 occupations = 'smearing' ,
                     degauss = 0.01 ,
				   input_dft = 'vdW-DF' ,
 /
 &ELECTRONS
            electron_maxstep = 50001,
                    conv_thr = 1.0D-6 ,
                 mixing_mode = 'local-TF' ,
                 mixing_beta = 0.5 ,
 /
ATOMIC_SPECIES
    C   12.01100  C.revpbe-n-kjpaw_psl.0.1.UPF 
ATOMIC_POSITIONS crystal 
C        0.000405464  -0.000405464   0.000000000
C        0.249767218  -0.000465563   0.000000000
C        0.499189073  -0.000405464  -0.000000000
C        0.750653119   0.001306238  -0.000000000
C       -0.001306238   0.249346881   0.000000000
C        0.079952590   0.164236133   0.000000000
C        0.246248575   0.245599101  -0.000000000
C        0.332168415   0.164336830   0.000000000
C        0.499350527   0.245599101   0.000000000
C        0.584283543   0.164236133   0.000000000
C        0.750653119   0.249346881   0.000000000
C        0.833333333   0.166666667   0.000000000
C        0.000405464   0.500810927  -0.000000000
C        0.079952590   0.415716457   0.000000000
C        0.246248575   0.500649473   0.000000000
C        0.304527415   0.402263708  -0.000000000
C        0.597736292   0.402263708   0.000000000
C        0.754400899   0.500649473  -0.000000000
C        0.835763867   0.415716457  -0.000000000
C        0.000465563   0.750232782  -0.000000000
C        0.083485844   0.666971689  -0.000000000
C        0.249767218   0.750232782   0.000000000
C        0.332168415   0.667831585   0.000000000
C        0.499350527   0.753751425  -0.000000000
C        0.597736292   0.695472585   0.000000000
C        0.754400899   0.753751425   0.000000000
C        0.835663170   0.667831585  -0.000000000
C        0.083485844   0.916514156  -0.000000000
C        0.333028311   0.916514156   0.000000000
C        0.584283543   0.920047410  -0.000000000
C        0.835763867   0.920047410  -0.000000000
K_POINTS automatic 
  16 16 1   0 0 0 

