 &CONTROL
                 calculation = 'nscf' ,
                      outdir = './tmp/' ,
                  pseudo_dir = '/home/deleted/pseudo_psl' ,
                      prefix = 'GI_ip' ,
                   verbosity = 'high' ,
               etot_conv_thr = 1.0D-5 ,
               forc_conv_thr = 4.0D-4 ,
                       nstep = 1000 ,
                    dipfield = .true. ,
 /
 &SYSTEM
                       ibrav = 4,
                           A = 9.88 ,
                           C = 15 ,
                         nat = 34,
                        ntyp = 4,
                     ecutwfc = 40.424239707 ,
                     ecutrho = 404.24239707 ,
                 occupations = 'tetrahedra' ,
                     degauss = 0.01 ,
				   input_dft = 'vdW-DF' ,
 /
 &ELECTRONS
            electron_maxstep = 50001,
                    conv_thr = 1.0D-6 ,
                 mixing_mode = 'local-TF' ,
                 mixing_beta = 0.5 ,
 /
ATOMIC_SPECIES
    C   12.01100  C.revpbe-n-kjpaw_psl.0.1.UPF 
    I  126.90400  I.revpbe-n-kjpaw_psl.0.2.UPF 
    O   15.99940  O.revpbe-n-kjpaw_psl.0.1.UPF 
    H   1.008000  H.revpbe-kjpaw_psl.0.1.UPF
ATOMIC_POSITIONS crystal 
C       -0.002634628  -0.006003507   0.006113569
C        0.249929726   0.001199925   0.009278118
C        0.495329449  -0.006212540   0.004725963
C        0.743370369  -0.012069873  -0.003887977
C       -0.007260571   0.240083892   0.011619068
C        0.078776503   0.160655060   0.005148347
C        0.245290597   0.247317858  -0.006117185
C        0.332525788   0.166415162  -0.003625088
C        0.500798861   0.247296325  -0.004727777
C        0.580618143   0.160454587   0.005708954
C        0.746036545   0.240003092   0.012596154
C        0.825950251   0.153135131   0.009105834
C       -0.004015980   0.493082213   0.025708125
C        0.073386554   0.406971425   0.017246114
C        0.234485720   0.491843254   0.000847431
C        0.310117966   0.409885620  -0.016537760
C        0.598277819   0.410023665  -0.012569209
C        0.755430871   0.491841142   0.005518471
C        0.832148069   0.406686636   0.019603033
C        0.002597003   0.747680264   0.019958093
C        0.080074542   0.661308738   0.025869083
C        0.243603817   0.747438938   0.017378881
C        0.319858523   0.662466267   0.000857670
C        0.477311503   0.744637910  -0.016997809
I        0.539147441   0.577565063  -0.054946429
C        0.765600975   0.744474775  -0.012600959
C        0.840692752   0.662486092   0.005731450
C        0.083155227   0.914335536   0.012970046
C        0.329843879   0.914253828   0.011518897
C        0.575160637   0.907115963  -0.006572241
C        0.830790400   0.907191471  -0.004617822
O        0.528832233   0.559533484   0.117605396
O        0.603042082   0.706682194   0.167261889
H        0.512301236   0.704975837   0.194678295
K_POINTS automatic 
  20 20 1   0 0 0 

