 &CONTROL
                 calculation = 'relax' ,
                      outdir = './tmp/' ,
                  pseudo_dir = '/home/deleted/pseudo_psl' ,
                      prefix = 'MVG_txc' ,
                   verbosity = 'high' ,
               etot_conv_thr = 1.0D-5 ,
               forc_conv_thr = 4.0D-4 ,
                       nstep = 1000 ,
                    dipfield = .true. ,
 /
 &SYSTEM
                       ibrav = 4,
                           A = 9.88 ,
                           C = 15 ,
                         nat = 32,
                        ntyp = 2,
                     ecutwfc = 40.424239707 ,
                     ecutrho = 404.24239707 ,
                 occupations = 'smearing' ,
                     degauss = 0.01 ,
				   input_dft = 'vdW-DF' ,
    nspin = 2 ,
    starting_magnetization(1) = 0.5,
	starting_magnetization(2) = 0.5,
 /
 &ELECTRONS
            electron_maxstep = 50001,
                    conv_thr = 1.0D-6 ,
                 mixing_mode = 'local-TF' ,
                 mixing_beta = 0.5 ,
 /
 &IONS
                ion_dynamics = 'bfgs' ,
 /
ATOMIC_SPECIES
    C   12.01100  C.revpbe-n-kjpaw_psl.0.1.UPF 
    O   15.99940  O.revpbe-n-kjpaw_psl.0.1.UPF 
ATOMIC_POSITIONS crystal 
C        0.000322757   0.002906086  -0.005695082
C        0.246974535  -0.002085870  -0.009937786
C        0.498655475   0.002912197  -0.005636570
C        0.751867672   0.007725740   0.004327446
C        0.002545578   0.254214232  -0.005984481
C        0.083869505   0.169500561  -0.008926668
C        0.251265386   0.250197671  -0.011738981
C        0.328378882   0.160684667  -0.012840540
C        0.494990169   0.250164300  -0.011797761
C        0.581758052   0.169507044  -0.008966481
C        0.747783695   0.254262469  -0.006029816
C        0.833707983   0.171354317  -0.003211256
C       -0.000764280   0.502370944  -0.003221402
C        0.088614699   0.419693923  -0.004112288
C        0.261647971   0.501095172  -0.001561940
C        0.341361932   0.411896795  -0.008496968
C        0.566608852   0.411881990  -0.008653707
C        0.735494090   0.501114094  -0.001739221
C        0.827176631   0.419744559  -0.004189318
C       -0.004664934   0.749683394  -0.003195121
C        0.081428185   0.666750208  -0.004630429
C        0.250446234   0.749718710  -0.003141311
C        0.338158022   0.669977625   0.005562610
C        0.501353143   0.759745277   0.018283791
C        0.596187175   0.695995461   0.057936662
C        0.754502214   0.759779154   0.018053531
C        0.827876449   0.669983328   0.005418778
C        0.079523904   0.915860411  -0.006424385
C        0.332405922   0.915898670  -0.006400285
C        0.583622176   0.922622855   0.004967575
C        0.835066724   0.922667167   0.004897253
O        0.557593505   0.618133467   0.127084152
K_POINTS automatic 
  4 4 1   0 0 0 

