 &CONTROL
                 calculation = 'relax' ,
                      outdir = './tmp/' ,
                  pseudo_dir = '/home/deleted/pseudo_psl' ,
                      prefix = 'MVG_txc' ,
                   verbosity = 'high' ,
               etot_conv_thr = 1.0D-5 ,
               forc_conv_thr = 4.0D-4 ,
                       nstep = 1000 ,
                    dipfield = .true. ,
 /
 &SYSTEM
                       ibrav = 4,
                           A = 9.88 ,
                           C = 15 ,
                         nat = 32,
                        ntyp = 2,
                     ecutwfc = 40.424239707 ,
                     ecutrho = 404.24239707 ,
                 occupations = 'smearing' ,
                     degauss = 0.01 ,
				   input_dft = 'vdW-DF' ,
    nspin = 2 ,
    starting_magnetization(1) = 0.5,
	starting_magnetization(2) = 0.5,
 /
 &ELECTRONS
            electron_maxstep = 50001,
                    conv_thr = 1.0D-6 ,
                 mixing_mode = 'local-TF' ,
                 mixing_beta = 0.5 ,
 /
 &IONS
                ion_dynamics = 'bfgs' ,
 /
ATOMIC_SPECIES
    C   12.01100  C.revpbe-n-kjpaw_psl.0.1.UPF 
    O   15.99940  O.revpbe-n-kjpaw_psl.0.1.UPF 
ATOMIC_POSITIONS crystal 
C        0.000220032  -0.000220032  -0.000000000
C        0.250181639   0.000363278  -0.000000000
C        0.499559937  -0.000220032   0.000000000
C        0.749867372  -0.000265257  -0.000000000
C        0.000265257   0.250132628   0.000000000
C        0.083521042   0.167143969   0.000000000
C        0.252577781   0.251848890  -0.000000000
C        0.332663042   0.165326084   0.000000000
C        0.499271109   0.251848890   0.000000000
C        0.583622926   0.167143969  -0.000000000
C        0.749867372   0.250132628   0.000000000
C        0.833333333   0.166666667   0.000000000
C        0.000220032   0.500440063   0.000000000
C        0.083521042   0.416377074   0.000000000
C        0.252577781   0.500728891   0.000000000
C        0.328842325   0.414421163   0.000000000
C        0.585578837   0.414421163   0.000000000
C        0.748151110   0.500728891   0.000000000
C        0.832856031   0.416377074   0.000000000
C       -0.000363278   0.749818361   0.000000000
C        0.083237199   0.666474399  -0.000000000
C        0.250181639   0.749818361  -0.000000000
C        0.332663042   0.667336958  -0.000000000
C        0.499271109   0.747422219   0.000000000
C        0.585578837   0.671157675  -0.000000000
C        0.748151110   0.747422219   0.000000000
C        0.834673916   0.667336958  -0.000000000
C        0.083237199   0.916762801   0.000000000
C        0.333525601   0.916762801  -0.000000000
C        0.583622926   0.916478958  -0.000000000
C        0.832856031   0.916478958   0.000000000
O        0.542424973   0.709289947   0.100000000
K_POINTS automatic 
  4 4 1   0 0 0 

