 &CONTROL
                 calculation = 'relax' ,
                      outdir = './tmp/' ,
                  pseudo_dir = '/home/deleted/pseudo_psl' ,
                      prefix = 'GI_op' ,
                   verbosity = 'high' ,
               etot_conv_thr = 1.0D-5 ,
               forc_conv_thr = 4.0D-4 ,
                       nstep = 1000 ,
                    dipfield = .true. ,
 /
 &SYSTEM
                       ibrav = 4,
                           A = 9.88 ,
                           C = 15 ,
                         nat = 34,
                        ntyp = 4,
                     ecutwfc = 40.424239707 ,
                     ecutrho = 404.24239707 ,
                 occupations = 'smearing' ,
                     degauss = 0.01 ,
				   input_dft = 'vdW-DF' ,
    nspin = 2 ,
    starting_magnetization(1) = 0.5,
    starting_magnetization(2) = 0.5,
    starting_magnetization(3) = 0.5,
	starting_magnetization(4) = 0.5,
 /
 &ELECTRONS
            electron_maxstep = 50001,
                    conv_thr = 1.0D-6 ,
                 mixing_mode = 'local-TF' ,
                 mixing_beta = 0.5 ,
 /
 &IONS
                ion_dynamics = 'bfgs' ,
 /
ATOMIC_SPECIES
    C   12.01100  C.revpbe-n-kjpaw_psl.0.1.UPF 
    I  126.90400  I.revpbe-n-kjpaw_psl.0.2.UPF 
    O   15.99940  O.revpbe-n-kjpaw_psl.0.1.UPF 
    H   1.008000  H.revpbe-kjpaw_psl.0.1.UPF
ATOMIC_POSITIONS (crystal)
C       -0.007560893  -0.012287224  -0.002253099
C        0.238693878  -0.022607496  -0.002192582
C        0.495266115  -0.012289927  -0.002263705
C        0.751344474   0.002696295  -0.002844158
C        0.001306558   0.244257025  -0.002883136
C        0.078783992   0.154921294  -0.002297557
C        0.245749112   0.231645822  -0.002334087
C        0.320052952   0.140115561  -0.002292869
C        0.485886229   0.231645384  -0.002337364
C        0.576127600   0.154921638  -0.002299210
C        0.742939002   0.244255305  -0.002871249
C        0.832626732   0.165263734  -0.003079466
C       -0.005215173   0.489581374  -0.003476845
C        0.089850409   0.409214673  -0.003415337
C        0.267043052   0.487140923  -0.003764662
C        0.345508168   0.394036717  -0.002479825
C        0.548517418   0.394038551  -0.002470644
C        0.720087793   0.487141960  -0.003736271
C        0.819351999   0.409215690  -0.003390399
C       -0.018461249   0.733550275  -0.003082766
C        0.076581157   0.653170134  -0.003270227
C        0.252005490   0.733548483  -0.003106375
C        0.351613411   0.655568946  -0.003634748
C        0.523107505   0.748564883  -0.003011370
I        0.490802704   0.481569754   0.212139838
C        0.725453936   0.748566662  -0.003006812
C        0.803950461   0.655570435  -0.003609983
C        0.070017739   0.898427901  -0.002364265
C        0.328402423   0.898427470  -0.002382737
C        0.585399273   0.910840924  -0.002627661
C        0.825435584   0.910841387  -0.002626812
O        0.839337433   1.178079445   0.220962149
O        0.766661379   1.033699342   0.218970902
H        0.749844591   1.130714487   0.312199048
K_POINTS automatic 
  4 4 1   0 0 0 

