 &CONTROL
                 calculation = 'nscf' ,
                      outdir = './tmp/' ,
                  pseudo_dir = '/home/deleted/pseudo_psl' ,
                      prefix = 'GBr_ip' ,
                   verbosity = 'high' ,
               etot_conv_thr = 1.0D-5 ,
               forc_conv_thr = 4.0D-4 ,
                       nstep = 1000 ,
                    dipfield = .true. ,
 /
 &SYSTEM
                       ibrav = 4,
                           A = 9.88 ,
                           C = 15 ,
                         nat = 34,
                        ntyp = 4,
                     ecutwfc = 40.424239707 ,
                     ecutrho = 404.24239707 ,
                 occupations = 'tetrahedra' ,
                     degauss = 0.01 ,
				   input_dft = 'vdW-DF' ,
 /
 &ELECTRONS
            electron_maxstep = 50001,
                    conv_thr = 1.0D-6 ,
                 mixing_mode = 'local-TF' ,
                 mixing_beta = 0.5 ,
 /
ATOMIC_SPECIES
    C   12.01100  C.revpbe-n-kjpaw_psl.0.1.UPF 
   Br   79.90350  Br.revpbe-n-kjpaw_psl.0.2.UPF 
    O   15.99940  O.revpbe-n-kjpaw_psl.0.1.UPF 
    H   1.008000  H.revpbe-kjpaw_psl.0.1.UPF
ATOMIC_POSITIONS crystal 
C       -0.005937769  -0.004347813   0.009024329
C        0.243075571  -0.005441421   0.012378158
C        0.493188729  -0.003897440   0.013828842
C        0.744228658  -0.003284092   0.010535533
C       -0.005058243   0.246636124   0.013956968
C        0.076010875   0.161521956   0.016171114
C        0.242123189   0.242539638   0.017400448
C        0.325499348   0.159368957   0.012843202
C        0.492274743   0.243171488   0.008274317
C        0.577249539   0.161963227   0.006956437
C        0.743610681   0.246548432   0.008935476
C        0.827414018   0.162777001   0.010875045
C       -0.006048990   0.495646579   0.012753518
C        0.079302797   0.412885544   0.019168222
C        0.248497119   0.495879572   0.029669788
C        0.324360368   0.406051819   0.022313723
C        0.573914592   0.406880975   0.005980870
C        0.739572964   0.495799136  -0.003334613
C        0.825846278   0.412826615   0.005593148
C       -0.006542948   0.745622059   0.006089318
C        0.077161506   0.662022954   0.013452127
C        0.244639169   0.745768657   0.020345661
C        0.329989608   0.665201325   0.037251735
C        0.491100590   0.760660087   0.059202709
Br       0.610522615   0.694213964  -0.131782619
C        0.762632772   0.758872324  -0.034956459
C        0.827515370   0.664741087  -0.011486538
C        0.076685289   0.911771189   0.008782872
C        0.326775339   0.911867313   0.015818627
C        0.577605033   0.915900337   0.025964371
C        0.829154162   0.915223955  -0.004875000
O        0.572355089   0.720388219   0.116630492
O        0.488031595   0.483218690   0.018293221
H        0.528160204   0.607560724   0.119203702
K_POINTS automatic 
  20 20 1   0 0 0 

