 &CONTROL
                 calculation = 'bands' ,
                      outdir = './tmp/' ,
                  pseudo_dir = '/home/deleted/pseudo_psl' ,
                      prefix = 'GF_op' ,
                   verbosity = 'high' ,
               etot_conv_thr = 1.0D-5 ,
               forc_conv_thr = 4.0D-4 ,
                       nstep = 1000 ,
                    dipfield = .true. ,
 /
 &SYSTEM
                       ibrav = 4,
                           A = 9.88 ,
                           C = 15 ,
                         nat = 34,
                        ntyp = 4,
                     ecutwfc = 40.424239707 ,
                     ecutrho = 404.24239707 ,
                 occupations = 'tetrahedra' ,
                     degauss = 0.01 ,
				   input_dft = 'vdW-DF' ,
 /
 &ELECTRONS
            electron_maxstep = 50001,
                    conv_thr = 1.0D-6 ,
                 mixing_mode = 'local-TF' ,
                 mixing_beta = 0.5 ,
 /
ATOMIC_SPECIES
    C   12.01100  C.revpbe-n-kjpaw_psl.0.1.UPF 
    F   18.99800  F.revpbe-n-kjpaw_psl.0.1.UPF 
    O   15.99940  O.revpbe-n-kjpaw_psl.0.1.UPF 
	H   1.00800   H.revpbe-kjpaw_psl.0.1.UPF
ATOMIC_POSITIONS crystal 
C       -0.005840741  -0.004699414   0.013537587
C        0.242791051  -0.006227219   0.017020166
C        0.495428052  -0.002981544   0.012961820
C        0.744458650  -0.002215142   0.007666267
C       -0.005152300   0.246034726   0.010881955
C        0.076401625   0.161436155   0.017301084
C        0.242131983   0.241220815   0.018763101
C        0.325538406   0.158791642   0.017121527
C        0.492244199   0.243350728   0.009709682
C        0.577814961   0.162841048   0.007086371
C        0.744012259   0.246721094   0.005600147
C        0.827982837   0.163996243   0.007297568
C       -0.006272555   0.495053976   0.004815721
C        0.079611636   0.411917174   0.009584310
C        0.247319368   0.491502943   0.012075663
C        0.325066264   0.405920379   0.015680204
C        0.572576091   0.407050873   0.004878752
C        0.738708407   0.495365949  -0.003997409
C        0.826475036   0.413666920   0.001873065
C       -0.007327759   0.745422626   0.007730175
C        0.077307520   0.662571660   0.008763097
C        0.242142059   0.746910553   0.010661772
C        0.336376938   0.664852516  -0.000952610
C        0.486066410   0.756099836   0.053641419
F        0.634128827   0.704186002  -0.083010235
C        0.763230680   0.759704931  -0.028655969
C        0.826990402   0.664234873  -0.008930816
C        0.076316468   0.911200122   0.013506043
C        0.325719506   0.910543020   0.015363837
C        0.581146563   0.918884410   0.018962860
C        0.830369371   0.915491553  -0.001084619
O        0.487869790   0.483490283   0.012626397
O        0.519159278   0.711970774   0.121936632
H        0.378614785   0.687767631  -0.071025739
K_POINTS crystal_b 
4
0.0000000000    0.0000000000    0.0000000000 17
0.0000000000    0.5000000000    0.0000000000 10
0.3333333333    0.3333333333    0.0000000000 20
0.0000000000    0.0000000000    0.0000000000 1