 &CONTROL
                 calculation = 'bands' ,
                      outdir = './tmp/' ,
                  pseudo_dir = '/home/deleted/pseudo_psl' ,
                      prefix = 'GCl_ip' ,
                   verbosity = 'high' ,
               etot_conv_thr = 1.0D-5 ,
               forc_conv_thr = 4.0D-4 ,
                       nstep = 1000 ,
                    dipfield = .true. ,
 /
 &SYSTEM
                       ibrav = 4,
                           A = 9.88 ,
                           C = 15 ,
                         nat = 34,
                        ntyp = 4,
                     ecutwfc = 40.424239707 ,
                     ecutrho = 404.24239707 ,
                 occupations = 'tetrahedra' ,
                     degauss = 0.01 ,
				   input_dft = 'vdW-DF' ,
    nspin = 2 ,
    starting_magnetization(1) = 0.5,
    starting_magnetization(2) = 0.5,
    starting_magnetization(3) = 0.5,
 /
 &ELECTRONS
            electron_maxstep = 50001,
                    conv_thr = 1.0D-6 ,
                 mixing_mode = 'local-TF' ,
                 mixing_beta = 0.5 ,
 /
ATOMIC_SPECIES
    C   12.01100  C.revpbe-n-kjpaw_psl.0.1.UPF 
   Cl   35.45200  Cl.revpbe-n-kjpaw_psl.0.3.0.UPF 
    O   15.99940  O.revpbe-n-kjpaw_psl.0.1.UPF 
    H   1.008000  H.revpbe-kjpaw_psl.0.1.UPF
ATOMIC_POSITIONS (crystal)
C        0.001812042   0.002521375   0.000426219
C        0.254354500   0.008671815   0.000563111
C        0.500593219   0.002313940  -0.001692489
C        0.748472194  -0.002739784  -0.002022288
C       -0.001444402   0.249894089   0.000186060
C        0.084355327   0.169920393  -0.000541208
C        0.252929243   0.257739618  -0.001953614
C        0.337451956   0.174992431  -0.000881417
C        0.504685245   0.257537030  -0.000280418
C        0.585417201   0.169666912  -0.000045399
C        0.751177357   0.249843169   0.001256237
C        0.831688561   0.163546502   0.000136677
C        0.001031095   0.502153364   0.002822238
C        0.079204913   0.416452556   0.000374985
C        0.243475342   0.501550555  -0.003090795
C        0.323700238   0.422306811  -0.004577009
C        0.598279554   0.422109378   0.000483728
C        0.757716851   0.501450053   0.002859428
C        0.837068117   0.416376513   0.003254150
C        0.006858250   0.755915378   0.003416353
C        0.085122192   0.670187949   0.002871173
C        0.248999431   0.755901495  -0.000107523
C        0.328189709   0.670905681  -0.004044173
C        0.487563886   0.750226528  -0.006967904
Cl       0.543184413   0.586989889  -0.005416238
C        0.762342906   0.750290025  -0.000666852
C        0.842430872   0.670919026   0.002635689
C        0.087500416   0.922420356   0.001712617
C        0.334889760   0.922367281  -0.000317505
C        0.581327763   0.914618195  -0.003882045
C        0.833230124   0.914806643  -0.000852767
O        0.516541584   0.832865540   0.210708517
O        0.520724878   0.694213560   0.204608055
H        0.557385739   0.683857603   0.263822941
K_POINTS automatic 
  20 20 1   0 0 0 

