 &CONTROL
                 calculation = 'nscf' ,
                      outdir = './tmp/' ,
                  pseudo_dir = '/home/deleted/pseudo_psl' ,
                      prefix = 'GCl_ip' ,
                   verbosity = 'high' ,
               etot_conv_thr = 1.0D-5 ,
               forc_conv_thr = 4.0D-4 ,
                       nstep = 1000 ,
                    dipfield = .true. ,
 /
 &SYSTEM
                       ibrav = 4,
                           A = 9.88 ,
                           C = 15 ,
                         nat = 32,
                        ntyp = 3,
                     ecutwfc = 40.424239707 ,
                     ecutrho = 404.24239707 ,
                 occupations = 'tetrahedra' ,
                     degauss = 0.01 ,
				   input_dft = 'vdW-DF' ,
    nspin = 2 ,
    starting_magnetization(1) = 0.5,
    starting_magnetization(2) = 0.5,
    starting_magnetization(3) = 1.0,
 /
 &ELECTRONS
            electron_maxstep = 50001,
                    conv_thr = 1.0D-6 ,
                 mixing_mode = 'local-TF' ,
                 mixing_beta = 0.5 ,
 /
ATOMIC_SPECIES
    C   12.01100  C.revpbe-n-kjpaw_psl.0.1.UPF 
   Cl   35.45200  Cl.revpbe-n-kjpaw_psl.0.3.0.UPF 
    O   15.99940  O.revpbe-n-kjpaw_psl.0.1.UPF 
ATOMIC_POSITIONS (crystal)
C       -0.001426438   0.008530543   0.007637620
C        0.248825260   0.008396750   0.002501807
C        0.498318507   0.009238658   0.010992023
C        0.750308535   0.011857493   0.015155766
C       -0.000330275   0.259647991   0.014531270
C        0.081103654   0.174554614   0.009879172
C        0.248574156   0.257033902   0.006144898
C        0.332055568   0.173399708  -0.005117427
C        0.499310340   0.255788137  -0.014375717
C        0.582516438   0.175396726   0.004491739
C        0.748806824   0.259303278   0.009031705
C        0.832615432   0.176572042   0.013924028
C       -0.001992721   0.509543330   0.013641307
C        0.081605365   0.425908423   0.016707492
C        0.250368209   0.508018487   0.018630891
C        0.319716535   0.416867466   0.017222574
C        0.590563187   0.415188949  -0.039614565
C        0.746931519   0.506973305  -0.010305946
C        0.830721712   0.425523704   0.007685820
C       -0.003447155   0.758570522   0.004966491
C        0.081791902   0.675670820   0.009571235
C        0.250398797   0.758830389   0.012009934
C        0.336862000   0.676823743   0.017616999
C        0.502774167   0.764245243   0.018061701
Cl       0.526114738   0.485183100  -0.129225193
C        0.749044290   0.762927023   0.009138185
C        0.827251387   0.675400827  -0.000990596
C        0.081105198   0.924851737   0.005774223
C        0.332299467   0.924783304   0.007344127
C        0.583616688   0.928188361   0.016056203
C        0.832339251   0.927113911   0.011740625
O        0.587076495   0.685667471   0.019171606
K_POINTS automatic 
  20 20 1   0 0 0 

