 &CONTROL
                 calculation = 'scf' ,
                      outdir = './tmp/' ,
                  pseudo_dir = '/home/deleted/pseudo_psl' ,
                      prefix = 'GI_ip' ,
                    dipfield = .true. ,
                   verbosity = 'high',
                       nstep = 1000,
               forc_conv_thr = 4.0D-4,
               etot_conv_thr = 1.0D-5
 /
 &SYSTEM
                       ibrav = 4,
                           A = 9.88 ,
                           C = 15 ,
                         nat = 32,
                        ntyp = 2,
                     ecutwfc = 40.424239707 ,
                     ecutrho = 404.24239707 ,
                 occupations = 'smearing' ,
                     degauss = 0.01 ,
				   input_dft = 'vdW-DF' ,
 /
 &ELECTRONS
            electron_maxstep = 50001,
                    conv_thr = 1.0D-6 ,
                 mixing_mode = 'local-TF' ,
                 mixing_beta = 0.5 ,
 /
ATOMIC_SPECIES
    C   12.01100  C.revpbe-n-kjpaw_psl.0.1.UPF 
    I  126.90400  I.revpbe-n-kjpaw_psl.0.2.UPF 
ATOMIC_POSITIONS crystal 
C        0.000456871  -0.000456871   0.000000000
C        0.249044804  -0.001910393   0.000000000
C        0.499086258  -0.000456871   0.000000000
C        0.751692863   0.003385726  -0.000000000
C       -0.003385726   0.248307137  -0.000000000
C        0.074523533   0.159820534   0.000000000
C        0.236375682   0.236546072   0.000000000
C        0.331800486   0.163600974   0.000000000
C        0.500170391   0.236546072  -0.000000000
C        0.585297000   0.159820534   0.000000000
C        0.751692863   0.248307137  -0.000000000
C        0.833333333   0.166666667   0.000000000
C        0.000456871   0.500913742  -0.000000000
C        0.074523533   0.414703000   0.000000000
C        0.236375682   0.499829609   0.000000000
C        0.280866638   0.390433319   0.000000000
I        0.500000000   0.500000000   0.000000000
C        0.609566681   0.390433319  -0.000000000
C        0.763453928   0.499829609   0.000000000
C        0.840179466   0.414703000   0.000000000
C        0.001910393   0.750955196   0.000000000
C        0.083967064   0.667934128  -0.000000000
C        0.249044804   0.750955196   0.000000000
C        0.331800486   0.668199514  -0.000000000
C        0.500170391   0.763624318   0.000000000
C        0.609566681   0.719133362  -0.000000000
C        0.763453928   0.763624318  -0.000000000
C        0.836399026   0.668199514   0.000000000
C        0.083967064   0.916032936  -0.000000000
C        0.332065872   0.916032936  -0.000000000
C        0.585297000   0.925476467   0.000000000
C        0.840179466   0.925476467  -0.000000000
K_POINTS automatic 
  16 16 1   0 0 0 

