 &CONTROL
                 calculation = 'relax' ,
                      outdir = './tmp/' ,
                  pseudo_dir = '/home/deleted/pseudo_psl' ,
                      prefix = 'GBr_ip' ,
                   verbosity = 'high' ,
               etot_conv_thr = 1.0D-5 ,
               forc_conv_thr = 4.0D-4 ,
                       nstep = 1000 ,
                    dipfield = .true. ,
 /
 &SYSTEM
                       ibrav = 4,
                           A = 9.88 ,
                           C = 15 ,
                         nat = 34,
                        ntyp = 4,
                     ecutwfc = 40.424239707 ,
                     ecutrho = 404.24239707 ,
                 occupations = 'smearing' ,
                     degauss = 0.01 ,
				   input_dft = 'vdW-DF' ,
 /
 &ELECTRONS
            electron_maxstep = 50001,
                    conv_thr = 1.0D-6 ,
                 mixing_mode = 'local-TF' ,
                 mixing_beta = 0.5 ,
 /
 &IONS
                ion_dynamics = 'bfgs' ,
 /
ATOMIC_SPECIES
    C   12.01100  C.revpbe-n-kjpaw_psl.0.1.UPF 
   Br   79.90350  Br.revpbe-n-kjpaw_psl.0.2.UPF 
    O   15.99940  O.revpbe-n-kjpaw_psl.0.1.UPF 
    H   1.008000  H.revpbe-kjpaw_psl.0.1.UPF
ATOMIC_POSITIONS crystal 
C        0.012606176   0.013330865  -0.000346954
C        0.268440009   0.021367684  -0.002122065
C        0.516655547   0.021047053   0.001056892
C        0.760765926   0.010579749   0.001600142
C        0.011674631   0.263720615   0.007786416
C        0.092970184   0.178988576   0.012682650
C        0.260148927   0.265396344   0.017172033
C        0.349769466   0.188091596   0.003022358
C        0.517237496   0.272950443  -0.005947992
C        0.600053125   0.186919578  -0.009832958
C        0.766394203   0.265491699  -0.011551939
C        0.846009316   0.178340953  -0.004763240
C        0.017702838   0.517330773  -0.002607341
C        0.094200080   0.431715973   0.014097977
C        0.256040914   0.514944161   0.036724069
C        0.330008141   0.425918297   0.030582466
C        0.613659144   0.437398510  -0.013429849
C        0.774124159   0.516918925  -0.018375764
C        0.853083125   0.431618193  -0.012441418
C        0.024043043   0.769621775  -0.013128057
C        0.104416537   0.684732974  -0.005892990
C        0.268198175   0.768233978   0.008573853
C        0.341780557   0.686051514   0.040868644
C        0.503611962   0.795094662   0.075134055
Br       0.543224739   0.588721486  -0.015188986
C        0.777657015   0.764229670  -0.023943173
C        0.860465706   0.686086441  -0.020208262
C        0.101029201   0.935470424  -0.005873560
C        0.350543845   0.937325897   0.001408998
C        0.597055244   0.937760538   0.017806776
C        0.845405226   0.926093187  -0.007028653
O        0.535683898   0.574645252   0.204146378
O        0.557488855   0.800525073   0.150604553
H        0.477097305   0.601702415   0.246203410
K_POINTS automatic 
  4 4 1   0 0 0 

