 &CONTROL
                 calculation = 'scf' ,
                      outdir = './tmp/' ,
                  pseudo_dir = '/home/deleted/pseudo_psl' ,
                      prefix = 'GBr_ip' ,
                   verbosity = 'high' ,
               etot_conv_thr = 1.0D-5 ,
               forc_conv_thr = 4.0D-4 ,
                       nstep = 1000 ,
                    dipfield = .true. ,
 /
 &SYSTEM
                       ibrav = 4,
                           A = 9.88 ,
                           C = 15 ,
                         nat = 34,
                        ntyp = 4,
                     ecutwfc = 40.424239707 ,
                     ecutrho = 404.24239707 ,
                 occupations = 'smearing' ,
                     degauss = 0.01 ,
				   input_dft = 'vdW-DF' ,
 /
 &ELECTRONS
            electron_maxstep = 50001,
                    conv_thr = 1.0D-6 ,
                 mixing_mode = 'local-TF' ,
                 mixing_beta = 0.5 ,
 /
ATOMIC_SPECIES
    C   12.01100  C.revpbe-n-kjpaw_psl.0.1.UPF 
   Br   79.90350  Br.revpbe-n-kjpaw_psl.0.2.UPF 
    O   15.99940  O.revpbe-n-kjpaw_psl.0.1.UPF 
    H   1.008000  H.revpbe-kjpaw_psl.0.1.UPF
ATOMIC_POSITIONS crystal 
C        0.016827832   0.029032153   0.013118723
C        0.266163598   0.028247858   0.017216337
C        0.516034049   0.029518974   0.022325577
C        0.767709224   0.031713338   0.018866078
C        0.016477998   0.279170023   0.021861553
C        0.098609389   0.194885909   0.020012024
C        0.263203602   0.275122338   0.032217886
C        0.349042592   0.194331641   0.016900500
C        0.515451657   0.275851118   0.001355982
C        0.599938111   0.195411693   0.015227361
C        0.766439037   0.279261003   0.014833922
C        0.850089178   0.196517048   0.018429405
C        0.016685797   0.528969238   0.019302585
C        0.100433038   0.445264740   0.026322091
C        0.266321832   0.525860082   0.043291089
C        0.331935095   0.430433969   0.065359343
C        0.605240639   0.432046079  -0.029018205
C        0.764357880   0.526293773  -0.005691408
C        0.849391906   0.445398094   0.011953078
C        0.014548982   0.778158790   0.011589111
C        0.099822376   0.695330494   0.018648962
C        0.267933679   0.778141189   0.025169438
C        0.354175037   0.695179797   0.035632303
C        0.519866665   0.784960103   0.028133481
Br       0.517216074   0.496112825  -0.125805105
C        0.768576156   0.784156958   0.011773400
C        0.845341455   0.695242885   0.002499226
C        0.098589930   0.944439472   0.015137039
C        0.349836947   0.944399664   0.020170708
C        0.601155785   0.948508811   0.023341344
C        0.850658789   0.947880962   0.014272095
O        0.453623484   0.470962767   0.122682500
O        0.606297986   0.707714097   0.023938657
H        0.521248915   0.583847387   0.125721387
K_POINTS automatic 
  16 16 1   0 0 0 

