 &CONTROL
                 calculation = 'nscf' ,
                      outdir = './tmp/' ,
                  pseudo_dir = '/home/deleted/pseudo_psl' ,
                      prefix = 'GCl_ip' ,
                   verbosity = 'high' ,
               etot_conv_thr = 1.0D-5 ,
               forc_conv_thr = 4.0D-4 ,
                       nstep = 1000 ,
                    dipfield = .true. ,
 /
 &SYSTEM
                       ibrav = 4,
                           A = 9.88 ,
                           C = 15 ,
                         nat = 34,
                        ntyp = 4,
                     ecutwfc = 40.424239707 ,
                     ecutrho = 404.24239707 ,
                 occupations = 'tetrahedra' ,
                     degauss = 0.01 ,
				   input_dft = 'vdW-DF' ,
 /
 &ELECTRONS
            electron_maxstep = 50001,
                    conv_thr = 1.0D-6 ,
                 mixing_mode = 'local-TF' ,
                 mixing_beta = 0.5 ,
 /
ATOMIC_SPECIES
    C   12.01100  C.revpbe-n-kjpaw_psl.0.1.UPF 
   Cl   35.45200  Cl.revpbe-n-kjpaw_psl.0.3.0.UPF 
    O   15.99940  O.revpbe-n-kjpaw_psl.0.1.UPF 
    H   1.008000  H.revpbe-kjpaw_psl.0.1.UPF
ATOMIC_POSITIONS crystal 
C        0.001828614   0.017052031   0.009764581
C        0.250417356   0.015788698   0.004322446
C        0.500623920   0.016623853   0.000300826
C        0.752371645   0.019282954   0.006727142
C        0.001144285   0.266799030   0.002487937
C        0.083812559   0.182934643   0.002527463
C        0.248531762   0.263301499  -0.011457523
C        0.333640927   0.181900708   0.003742244
C        0.500241534   0.262575471   0.019211590
C        0.584673697   0.182430587   0.007254328
C        0.751071348   0.266734120   0.009556006
C        0.834782276   0.184081871   0.006240293
C        0.000582209   0.516498053   0.007143020
C        0.084273784   0.432917610  -0.000309702
C        0.250106351   0.513822847  -0.017769947
C        0.315238108   0.419856084  -0.041831256
C        0.586463621   0.417627010   0.052679357
C        0.747706920   0.513325796   0.030985649
C        0.833144601   0.432837070   0.014125854
C       -0.001448338   0.765643785   0.012796336
C        0.083879322   0.682883298   0.006314939
C        0.251989827   0.765739703  -0.000811092
C        0.338307473   0.682760908  -0.009530031
C        0.503932722   0.771819049  -0.000000474
Cl       0.461362899   0.483485938  -0.124278140
C        0.753529424   0.772604259   0.016505315
C        0.829328543   0.682656957   0.023526282
C        0.082892970   0.931911462   0.007588564
C        0.334239924   0.932023473   0.002390891
C        0.585637975   0.935524688   0.001919322
C        0.835737502   0.936073621   0.011215988
O        0.504704386   0.457287485   0.110098069
O        0.589786765   0.695736522   0.013484877
H        0.547056474   0.569974961   0.111508596
K_POINTS automatic 
  20 20 1   0 0 0 

