 &CONTROL
                 calculation = 'scf' ,
                      outdir = './tmp/' ,
                  pseudo_dir = '/home/deleted/pseudo_psl' ,
                      prefix = 'GI_op' ,
                   verbosity = 'high' ,
               etot_conv_thr = 1.0D-5 ,
               forc_conv_thr = 4.0D-4 ,
                       nstep = 1000 ,
                    dipfield = .true. ,
 /
 &SYSTEM
                       ibrav = 4,
                           A = 9.88 ,
                           C = 15 ,
                         nat = 34,
                        ntyp = 4,
                     ecutwfc = 40.424239707 ,
                     ecutrho = 404.24239707 ,
                 occupations = 'smearing' ,
                     degauss = 0.01 ,
				   input_dft = 'vdW-DF' ,
 /
 &ELECTRONS
            electron_maxstep = 50001,
                    conv_thr = 1.0D-6 ,
                 mixing_mode = 'local-TF' ,
                 mixing_beta = 0.5 ,
 /
ATOMIC_SPECIES
    C   12.01100  C.revpbe-n-kjpaw_psl.0.1.UPF 
    I  126.90400  I.revpbe-n-kjpaw_psl.0.2.UPF 
    O   15.99940  O.revpbe-n-kjpaw_psl.0.1.UPF 
    H   1.008000  H.revpbe-kjpaw_psl.0.1.UPF
ATOMIC_POSITIONS crystal 
C       -0.003205488  -0.000546399  -0.004956781
C        0.243078857  -0.010772361  -0.004511047
C        0.499671808  -0.000501829  -0.004909975
C        0.756064611   0.015057214  -0.005382523
C        0.006153317   0.256340164  -0.004783732
C        0.083301107   0.166812600  -0.004642844
C        0.250244425   0.243377839  -0.004552013
C        0.324170263   0.151285747  -0.004574573
C        0.490219939   0.243447833  -0.004957356
C        0.580565218   0.166845902  -0.004801225
C        0.747179541   0.256349454  -0.004871661
C        0.837057505   0.177140075  -0.004873471
C       -0.000652282   0.501902289  -0.005152857
C        0.094621654   0.421159956  -0.005019040
C        0.271747809   0.498980761  -0.005319317
C        0.350410799   0.405654284  -0.004679137
C        0.552625131   0.405410490  -0.005559835
C        0.724004493   0.498828036  -0.005507572
C        0.823350628   0.421114932  -0.005153324
C       -0.014549899   0.745350762  -0.005148358
C        0.080736271   0.664637983  -0.005145001
C        0.256758203   0.745409118  -0.005146607
C        0.356331466   0.667853381  -0.005554569
C        0.527984159   0.760920509  -0.005800811
I        0.676467494   0.769267366   0.253514141
C        0.730012074   0.760904764  -0.006042207
C        0.808303730   0.667691618  -0.005657289
C        0.074024630   0.910064088  -0.004757899
C        0.333000902   0.910115481  -0.004780470
C        0.589982592   0.922875627  -0.005470414
C        0.829912347   0.922858642  -0.005707129
O        0.602644078   0.535676722   0.214399896
O        0.434568213   0.438529141   0.211639652
H        0.412329059   0.446029702   0.148253272
K_POINTS automatic 
  16 16 1   0 0 0 

