 &CONTROL
                 calculation = 'scf' ,
                      outdir = './tmp_subs/' ,
                  pseudo_dir = '/home/deleted/pseudo_psl' ,
                      prefix = 'GI_op_subs' ,
                   verbosity = 'high' ,
               etot_conv_thr = 1.0D-5 ,
               forc_conv_thr = 4.0D-4 ,
                       nstep = 1000 ,
                    dipfield = .true. ,
 /
 &SYSTEM
                       ibrav = 4,
                           A = 9.88 ,
                           C = 15 ,
                         nat = 31,
                        ntyp = 2,
                     ecutwfc = 40.424239707 ,
                     ecutrho = 404.24239707 ,
                 occupations = 'smearing' ,
                     degauss = 0.01 ,
				   input_dft = 'vdW-DF' ,
 /
 &ELECTRONS
            electron_maxstep = 50001,
                    conv_thr = 1.0D-6 ,
                 mixing_mode = 'local-TF' ,
                 mixing_beta = 0.5 ,
 /
ATOMIC_SPECIES
    C   12.01100  C.revpbe-n-kjpaw_psl.0.1.UPF 
    I  126.90400  I.revpbe-n-kjpaw_psl.0.2.UPF 
ATOMIC_POSITIONS crystal 
C       -0.001773818  -0.000727381  -0.002898491
C        0.244480285  -0.011039431  -0.002988592
C        0.501046437  -0.000727381  -0.002898491
C        0.757304322   0.014608642  -0.002736011
C        0.007390091   0.256005180  -0.003316952
C        0.084674821   0.166550645  -0.003224210
C        0.251623531   0.243267524  -0.003759049
C        0.325599330   0.151198661  -0.003397585
C        0.491643993   0.243267524  -0.003759049
C        0.581875823   0.166550645  -0.003224210
C        0.748615089   0.256005180  -0.003316952
C        0.838452223   0.176904448  -0.002970996
C        0.000663459   0.501326918  -0.003774785
C        0.095967305   0.420771799  -0.003849093
C        0.273384610   0.498408002  -0.004294185
C        0.351590582   0.405271072  -0.004398293
C        0.553680490   0.405271072  -0.004398293
C        0.725023393   0.498408002  -0.004294185
C        0.824804492   0.420771799  -0.003849093
C       -0.013065074   0.745021880  -0.003414523
C        0.082222928   0.664445856  -0.003528894
C        0.258086954   0.745021880  -0.003414523
C        0.357830995   0.667191193  -0.003883845
C        0.529265691   0.760411512  -0.003460656
I        0.598553275   0.697106549   0.263351856
C        0.731145820   0.760411512  -0.003460656
C        0.809360197   0.667191193  -0.003883845
C        0.075500907   0.909808710  -0.002992756
C        0.334307802   0.909808710  -0.002992756
C        0.591290925   0.922514732  -0.002919142
C        0.831223807   0.922514732  -0.002919142
K_POINTS automatic 
  16 16 1   0 0 0 

