 &CONTROL
                 calculation = 'relax' ,
                      outdir = './tmp/' ,
                  pseudo_dir = '/home/deleted/pseudo_psl' ,
                      prefix = 'GBr_op' ,
                   verbosity = 'high' ,
               etot_conv_thr = 1.0D-5 ,
               forc_conv_thr = 4.0D-4 ,
                       nstep = 1000 ,
                    dipfield = .true. ,
 /
 &SYSTEM
                       ibrav = 4,
                           A = 9.88 ,
                           C = 15 ,
                         nat = 34,
                        ntyp = 4,
                     ecutwfc = 40.424239707 ,
                     ecutrho = 404.24239707 ,
                 occupations = 'smearing' ,
                     degauss = 0.01 ,
				   input_dft = 'vdW-DF' ,
    nspin = 2 ,
    starting_magnetization(1) = 0.5,
    starting_magnetization(2) = 0.5,
    starting_magnetization(3) = 0.5,
	starting_magnetization(4) = 0.5,
 /
 &ELECTRONS
            electron_maxstep = 50001,
                    conv_thr = 1.0D-6 ,
                 mixing_mode = 'local-TF' ,
                 mixing_beta = 0.5 ,
    diagonalization = 'cg' ,
 /
 &IONS
                ion_dynamics = 'bfgs' ,
 /
ATOMIC_SPECIES
    C   12.01100  C.revpbe-n-kjpaw_psl.0.1.UPF 
   Br   79.90350  Br.revpbe-n-kjpaw_psl.0.2.UPF 
    O   15.99940  O.revpbe-n-kjpaw_psl.0.1.UPF 
    H   1.008000  H.revpbe-kjpaw_psl.0.1.UPF
ATOMIC_POSITIONS (crystal)
C        0.006524023   0.015712165  -0.002231146
C        0.252580537   0.005161075  -0.002296732
C        0.509188142   0.015712165  -0.002231146
C        0.765167200   0.030334399  -0.002581289
C        0.015198269   0.272134415  -0.003083584
C        0.092931897   0.182886374  -0.002853911
C        0.259955568   0.259765360  -0.003447933
C        0.333950281   0.167900564  -0.003154271
C        0.499809793   0.259765360  -0.003447933
C        0.589954476   0.182886374  -0.002853911
C        0.756936145   0.272134415  -0.003083584
C        0.846670843   0.193341687  -0.002862772
C        0.008636044   0.517272090  -0.003562230
C        0.103711591   0.437025738  -0.003626250
C        0.281656389   0.515165376  -0.004053244
C        0.360439668   0.422146818  -0.003937526
C        0.561707149   0.422146818  -0.003937526
C        0.733508987   0.515165376  -0.004053244
C        0.833314147   0.437025738  -0.003626250
C       -0.004609091   0.761262256  -0.002954459
C        0.090534965   0.681069931  -0.003322804
C        0.265871348   0.761262256  -0.002954459
C        0.364958319   0.683274271  -0.003456412
C        0.536919107   0.776454407  -0.001356899
Br       0.606176299   0.712352599   0.184282517
C        0.739535300   0.776454407  -0.001356899
C        0.818315951   0.683274271  -0.003456412
C        0.084012174   0.926310055  -0.002204771
C        0.342297880   0.926310055  -0.002204771
C        0.599498038   0.939116587  -0.002098030
C        0.839618548   0.939116587  -0.002098030
O        0.431681527   0.238363342   0.218719620
O        0.306681815   0.238363342   0.218719620
H        0.369181671   0.249364774   0.318456732
K_POINTS automatic 
  4 4 1   0 0 0 

