 &CONTROL
                 calculation = 'relax' ,
                      outdir = './tmp/' ,
                  pseudo_dir = '/home/deleted/pseudo_psl' ,
                      prefix = 'GBr_op' ,
                   verbosity = 'high' ,
               etot_conv_thr = 1.0D-5 ,
               forc_conv_thr = 4.0D-4 ,
                       nstep = 1000 ,
                    dipfield = .true. ,
 /
 &SYSTEM
                       ibrav = 4,
                           A = 9.88 ,
                           C = 15 ,
                         nat = 34,
                        ntyp = 4,
                     ecutwfc = 40.424239707 ,
                     ecutrho = 404.24239707 ,
                 occupations = 'smearing' ,
                     degauss = 0.01 ,
				   input_dft = 'vdW-DF' ,
    nspin = 2 ,
    starting_magnetization(1) = 0.5,
    starting_magnetization(2) = 0.5,
    starting_magnetization(3) = 0.5,
 /
 &ELECTRONS
            electron_maxstep = 50001,
                    conv_thr = 1.0D-6 ,
                 mixing_mode = 'local-TF' ,
                 mixing_beta = 0.5 ,
    diagonalization = 'cg' ,
 /
 &IONS
                ion_dynamics = 'bfgs' ,
 /
ATOMIC_SPECIES
    C   12.01100  C.revpbe-n-kjpaw_psl.0.1.UPF 
   Br   79.90350  Br.revpbe-n-kjpaw_psl.0.2.UPF 
    O   15.99940  O.revpbe-n-kjpaw_psl.0.1.UPF 
    H   1.008000  H.revpbe-kjpaw_psl.0.1.UPF
ATOMIC_POSITIONS (crystal)
C        0.006064231   0.016562284  -0.001584120
C        0.252400474   0.006374928  -0.002404572
C        0.508883212   0.016574045  -0.002689789
C        0.765208801   0.032034596  -0.001895058
C        0.015323182   0.273369476  -0.000303239
C        0.092528257   0.183896070  -0.001182367
C        0.259473502   0.260537758  -0.001627725
C        0.333407790   0.168438690  -0.002813865
C        0.499466082   0.260573819  -0.002264745
C        0.589790675   0.183929538  -0.002093778
C        0.756437524   0.273348477  -0.000698750
C        0.846224938   0.194110654  -0.000699192
C        0.008693695   0.518920798   0.000429133
C        0.103874782   0.438131079   0.000074407
C        0.281105298   0.515909604  -0.000552860
C        0.359439655   0.422623722  -0.000891014
C        0.561557301   0.422610356  -0.000955614
C        0.733174518   0.515869630  -0.000058231
C        0.832690331   0.438143225   0.000223390
C       -0.005145495   0.762452882  -0.000414752
C        0.090116377   0.681759165  -0.000054393
C        0.266068259   0.762501043  -0.001174102
C        0.365549152   0.684750281  -0.001361309
C        0.537036629   0.777895640  -0.002184697
Br       0.525296649   0.639410928   0.245239147
C        0.739162823   0.777853250  -0.001645012
C        0.817574911   0.684758522  -0.000507290
C        0.083393482   0.927234566  -0.001406276
C        0.342262086   0.927206071  -0.002296784
C        0.599098595   0.939849135  -0.002570958
C        0.839115298   0.939885879  -0.001894087
O        0.390578649   0.094606036   0.218335420
O        0.331524378   0.178612438   0.227990438
H        0.475138958   0.495296864   0.197722706
K_POINTS automatic 
  4 4 1   0 0 0 

