 &CONTROL
                 calculation = 'bands' ,
                      outdir = './tmp/' ,
                  pseudo_dir = '/home/deleted/pseudo_psl' ,
                      prefix = 'GI_op' ,
                   verbosity = 'high' ,
               etot_conv_thr = 1.0D-5 ,
               forc_conv_thr = 4.0D-4 ,
                       nstep = 1000 ,
                    dipfield = .true. ,
 /
 &SYSTEM
                       ibrav = 4,
                           A = 9.88 ,
                           C = 15 ,
                         nat = 34,
                        ntyp = 4,
                     ecutwfc = 40.424239707 ,
                     ecutrho = 404.24239707 ,
                 occupations = 'tetrahedra' ,
                     degauss = 0.01 ,
				   input_dft = 'vdW-DF' ,
    nspin = 2 ,
    starting_magnetization(1) = 0.5,
    starting_magnetization(2) = 0.5,
    starting_magnetization(3) = 0.5,
 /
 &ELECTRONS
            electron_maxstep = 50001,
                    conv_thr = 1.0D-6 ,
                 mixing_mode = 'local-TF' ,
                 mixing_beta = 0.5 ,
 /
ATOMIC_SPECIES
    C   12.01100  C.revpbe-n-kjpaw_psl.0.1.UPF 
    I  126.90400  I.revpbe-n-kjpaw_psl.0.2.UPF 
    O   15.99940  O.revpbe-n-kjpaw_psl.0.1.UPF 
    H   1.008000  H.revpbe-kjpaw_psl.0.1.UPF
ATOMIC_POSITIONS (crystal)
C        0.000298914  -0.000514392  -0.001718113
C        0.246478133  -0.010851869  -0.001625389
C        0.502991448  -0.000546147  -0.001788533
C        0.759060795   0.014294307  -0.001947502
C        0.009104122   0.255975588  -0.002068539
C        0.086609615   0.166640760  -0.001661030
C        0.253623943   0.243515830  -0.001744301
C        0.327787764   0.151725952  -0.001348553
C        0.493739697   0.243477953  -0.001616833
C        0.583869786   0.166607047  -0.001592753
C        0.750714570   0.255937711  -0.002035078
C        0.840399859   0.176927912  -0.001863930
C        0.002551765   0.501211613  -0.003197409
C        0.097569386   0.420823323  -0.002905400
C        0.275222435   0.498771107  -0.003443825
C        0.353452512   0.405743047  -0.002651000
C        0.556200901   0.405718840  -0.002490948
C        0.727446831   0.498752751  -0.003374125
C        0.827148360   0.420790269  -0.002917749
C       -0.010686155   0.745245641  -0.003069810
C        0.084351929   0.664864952  -0.003291977
C        0.259755673   0.745241302  -0.003101534
C        0.359324173   0.667330577  -0.003681160
C        0.530611949   0.760405693  -0.002929560
I        0.566304748   0.649194705   0.220647976
C        0.733678890   0.760399076  -0.002828911
C        0.811855814   0.667324464  -0.003598165
C        0.077766777   0.910134092  -0.002047554
C        0.336158887   0.910118298  -0.002083651
C        0.593176632   0.922675759  -0.002250065
C        0.833320451   0.922658638  -0.002132184
O        0.637076162   0.739845361   0.483847192
O        0.621567818   0.615893272   0.439512709
H        0.605842900   0.632937542   0.373366702
K_POINTS automatic 
  20 20 1   0 0 0 

