 &CONTROL
                 calculation = 'bands' ,
                      outdir = './tmp/' ,
                  pseudo_dir = '/home/deleted/pseudo_psl' ,
                      prefix = 'GF_op' ,
                   verbosity = 'high' ,
               etot_conv_thr = 1.0D-5 ,
               forc_conv_thr = 4.0D-4 ,
                       nstep = 1000 ,
                    dipfield = .true. ,
 /
 &SYSTEM
                       ibrav = 4,
                           A = 9.88 ,
                           C = 15 ,
                         nat = 34,
                        ntyp = 4,
                     ecutwfc = 40.424239707 ,
                     ecutrho = 404.24239707 ,
                 occupations = 'tetrahedra' ,
                     degauss = 0.01 ,
				   input_dft = 'vdW-DF' ,
    nspin = 2 ,
    starting_magnetization(1) = 0.5,
    starting_magnetization(2) = 0.5,
    starting_magnetization(3) = 0.5,
 /
 &ELECTRONS
            electron_maxstep = 50001,
                    conv_thr = 1.0D-6 ,
                 mixing_mode = 'local-TF' ,
                 mixing_beta = 0.5 ,
 /
ATOMIC_SPECIES
    C   12.01100  C.revpbe-n-kjpaw_psl.0.1.UPF 
    F   18.99800  F.revpbe-n-kjpaw_psl.0.1.UPF 
    O   15.99940  O.revpbe-n-kjpaw_psl.0.1.UPF 
    H   1.008000  H.revpbe-kjpaw_psl.0.1.UPF
ATOMIC_POSITIONS (crystal)
C        0.007531605   0.000053705  -0.001299908
C        0.254084351  -0.004221615  -0.009588060
C        0.505388532   0.001359972  -0.009480380
C        0.758330675   0.003703552   0.003751096
C        0.009331001   0.251431591  -0.003329660
C        0.090908231   0.166804637  -0.005701283
C        0.258540194   0.247785757  -0.008325372
C        0.335632475   0.158868915  -0.009020247
C        0.501798291   0.248532269  -0.007354710
C        0.588417875   0.167646330  -0.006143258
C        0.754682834   0.251366765  -0.004425254
C        0.840631067   0.168412664  -0.001020165
C        0.006011879   0.499361338  -0.006635412
C        0.095370984   0.416853347  -0.007601465
C        0.268871782   0.498158489  -0.012550950
C        0.350205335   0.410430215  -0.009034769
C        0.572790616   0.410855759  -0.003844715
C        0.742182435   0.498655613   0.002170287
C        0.834290359   0.417002039  -0.003300902
C        0.003623319   0.747691604  -0.004189534
C        0.088112738   0.664414459  -0.009849706
C        0.255758412   0.747570250  -0.014162504
C        0.343934823   0.666740353  -0.017978117
C        0.503507327   0.761043428  -0.022518098
F        0.638033230   0.689201606   0.083689683
C        0.772535126   0.760044309   0.032606287
C        0.837211855   0.667045192   0.009968880
C        0.087341564   0.913657703  -0.005066071
C        0.338911574   0.913620587  -0.012336728
C        0.591571167   0.920100478  -0.008837828
C        0.842255471   0.920164440   0.012936707
O        0.317963683   0.500001565   0.218724834
O        0.224886666   0.559573847   0.194010030
H        0.405056809   0.544511694   0.175403214
K_POINTS automatic 
  20 20 1   0 0 0 

