 &CONTROL
                 calculation = 'bands' ,
                      outdir = './tmp/' ,
                  pseudo_dir = '/home/deleted/pseudo_psl' ,
                      prefix = 'GCl_ip' ,
                    dipfield = .true. ,
                   verbosity = 'high',
                       nstep = 1000,
               forc_conv_thr = 4.0D-4,
               etot_conv_thr = 1.0D-5
 /
 &SYSTEM
                       ibrav = 4,
                           A = 9.88 ,
                           C = 15 ,
                         nat = 31,
                        ntyp = 2,
                     ecutwfc = 40.424239707 ,
                     ecutrho = 404.24239707 ,
                 occupations = 'tetrahedra' ,
                     degauss = 0.01 ,
				   input_dft = 'vdW-DF' ,
 /
 &ELECTRONS
            electron_maxstep = 50001,
                    conv_thr = 1.0D-6 ,
                 mixing_mode = 'local-TF' ,
                 mixing_beta = 0.5 ,
 /
ATOMIC_SPECIES
    C   12.01100  C.revpbe-n-kjpaw_psl.0.1.UPF 
   Cl   35.45200  Cl.revpbe-n-kjpaw_psl.0.3.0.UPF 
ATOMIC_POSITIONS crystal 
C       -0.003368048  -0.002113343   0.000000000
C        0.236408015  -0.027183970   0.000000000
C        0.501254705  -0.002113343   0.000000000
C        0.748322138  -0.003355724   0.000000000
C       -0.005438244   0.249738669   0.000000000
C        0.073735377   0.165650091   0.000000000
C        0.231411028   0.276527523   0.000000000
Cl       0.333771702   0.167543406   0.000000000
C        0.545116495   0.276527523   0.000000000
C        0.591914713   0.165650091   0.000000000
C        0.755176913   0.249738669   0.000000000
C        0.831497312   0.162994626   0.000000000
C        0.000405412   0.500810824   0.000000000
C        0.079607303   0.417273920   0.000000000
C        0.243596921   0.503831715   0.000000000
C        0.326391611   0.426198528   0.000000000
C        0.599806916   0.426198528   0.000000000
C        0.760234793   0.503831715   0.000000000
C        0.837666616   0.417273920   0.000000000
C       -0.002181091   0.746816267   0.000000000
C        0.082822014   0.665644029   0.000000000
C        0.248997358   0.746816267   0.000000000
C        0.331004700   0.667023325   0.000000000
C        0.497954566   0.743439949   0.000000000
C        0.581877826   0.663755653   0.000000000
C        0.745485383   0.743439949   0.000000000
C        0.836018624   0.667023325   0.000000000
C        0.077431366   0.911004145   0.000000000
C        0.333572778   0.911004145   0.000000000
C        0.582203247   0.912838125   0.000000000
C        0.830634877   0.912838125   0.000000000
K_POINTS crystal_b 
4
0.0000000000    0.0000000000    0.0000000000 17
0.0000000000    0.5000000000    0.0000000000 10
0.3333333333    0.3333333333    0.0000000000 20
0.0000000000    0.0000000000    0.0000000000 1

