 &CONTROL
                 calculation = 'scf' ,
                      outdir = './tmp/' ,
                  pseudo_dir = '/home/deleted/pseudo_psl' ,
                      prefix = 'GCl_ip' ,
                   verbosity = 'high' ,
               etot_conv_thr = 1.0D-5 ,
               forc_conv_thr = 4.0D-4 ,
                       nstep = 1000 ,
                    dipfield = .true. ,
 /
 &SYSTEM
                       ibrav = 4,
                           A = 9.88 ,
                           C = 15 ,
                         nat = 32,
                        ntyp = 3,
                     ecutwfc = 40.424239707 ,
                     ecutrho = 404.24239707 ,
                 occupations = 'smearing' ,
                     degauss = 0.01 ,
				   input_dft = 'vdW-DF' ,
    nspin = 2 ,
    starting_magnetization(1) = 0.5,
    starting_magnetization(2) = 0.5,
    starting_magnetization(3) = 0.5,
 /
 &ELECTRONS
            electron_maxstep = 50001,
                    conv_thr = 1.0D-6 ,
                 mixing_mode = 'local-TF' ,
                 mixing_beta = 0.5 ,
 /
ATOMIC_SPECIES
    C   12.01100  C.revpbe-n-kjpaw_psl.0.1.UPF 
   Cl   35.45200  Cl.revpbe-n-kjpaw_psl.0.3.0.UPF 
    O   15.99940  O.revpbe-n-kjpaw_psl.0.1.UPF 
ATOMIC_POSITIONS (crystal)
C       -0.000300194  -0.002589216  -0.007262182
C        0.245334781  -0.009330439  -0.011793274
C        0.497710977  -0.002589216  -0.007262182
C        0.751426055   0.002852109   0.003769092
C        0.001482924   0.248510773  -0.008145840
C        0.083423296   0.163873407  -0.010756906
C        0.250857432   0.243736101  -0.013689523
C        0.326918532   0.153837065  -0.014688901
C        0.492878668   0.243736101  -0.013689523
C        0.580450110   0.163873407  -0.010756906
C        0.747027849   0.248510773  -0.008145840
C        0.833725391   0.167450781  -0.004470653
C       -0.002160011   0.495679978  -0.007513825
C        0.087761915   0.413966288  -0.007868907
C        0.261484862   0.495096210  -0.005697292
C        0.344026456   0.405996866  -0.010982179
C        0.561970408   0.405996866  -0.010982179
C        0.733611348   0.495096210  -0.005697292
C        0.826204372   0.413966288  -0.007868907
C       -0.005463770   0.742904566  -0.006601384
C        0.080297317   0.660594636  -0.008943892
C        0.248368337   0.742904566  -0.006601384
C        0.334656500   0.661931977   0.001709987
C        0.498124251   0.756198488   0.014773020
Cl       0.587542643   0.675085288   0.082124777
C        0.758074236   0.756198488   0.014773020
C        0.827275476   0.661931977   0.001709987
C        0.078471711   0.909467780  -0.008520870
C        0.330996069   0.909467780  -0.008520870
C        0.584835948   0.919106157   0.004200501
C        0.834270208   0.919106157   0.004200501
O        0.617232424   0.734464849   0.179199827
K_POINTS automatic 
  16 16 1   0 0 0 

