 &CONTROL
                 calculation = 'scf' ,
                      outdir = './tmp/' ,
                  pseudo_dir = '/home/deleted/pseudo_psl' ,
                      prefix = 'GI_ip' ,
                   verbosity = 'high' ,
               etot_conv_thr = 1.0D-5 ,
               forc_conv_thr = 4.0D-4 ,
                       nstep = 1000 ,
                    dipfield = .true. ,
 /
 &SYSTEM
                       ibrav = 4,
                           A = 9.88 ,
                           C = 15 ,
                         nat = 34,
                        ntyp = 4,
                     ecutwfc = 40.424239707 ,
                     ecutrho = 404.24239707 ,
                 occupations = 'smearing' ,
                     degauss = 0.01 ,
				   input_dft = 'vdW-DF' ,
    nspin = 2 ,
    starting_magnetization(1) = 0.5,
    starting_magnetization(2) = 0.5,
    starting_magnetization(3) = 0.5,
 /
 &ELECTRONS
            electron_maxstep = 50001,
                    conv_thr = 1.0D-6 ,
                 mixing_mode = 'local-TF' ,
                 mixing_beta = 0.5 ,
 /
ATOMIC_SPECIES
    C   12.01100  C.revpbe-n-kjpaw_psl.0.1.UPF 
    I  126.90400  I.revpbe-n-kjpaw_psl.0.2.UPF 
    O   15.99940  O.revpbe-n-kjpaw_psl.0.1.UPF 
    H   1.008000  H.revpbe-kjpaw_psl.0.1.UPF
ATOMIC_POSITIONS (crystal)
C        0.004712184   0.010120857  -0.004008760
C        0.257542371   0.017120368  -0.004425259
C        0.503484542   0.010335955  -0.000689689
C        0.751496228   0.004773733   0.006175177
C        0.001371161   0.257121228  -0.007757038
C        0.087120742   0.177314485  -0.001449047
C        0.254322513   0.264578454   0.009259911
C        0.340586160   0.182722555   0.007219567
C        0.508689687   0.264728099   0.005770602
C        0.588565044   0.177344391  -0.002773005
C        0.754226367   0.257086073  -0.009136337
C        0.834352812   0.170440103  -0.004901399
C        0.004320904   0.509621841  -0.022199725
C        0.082423753   0.423797935  -0.014202497
C        0.244919422   0.508751749  -0.000080702
C        0.321870956   0.428463504   0.017108017
C        0.603550490   0.429680142   0.008071836
C        0.761134026   0.508503379  -0.010058581
C        0.839894833   0.423430569  -0.018137732
C        0.009966670   0.763990343  -0.018581094
C        0.088462136   0.678052309  -0.022158137
C        0.252358627   0.763983937  -0.013781558
C        0.329941615   0.679312078   0.000609036
C        0.486688033   0.759898167   0.019451096
I        0.547467412   0.594081529   0.071310852
C        0.765516997   0.757101590   0.003237746
C        0.845894259   0.678812494  -0.011535457
C        0.090721269   0.930439729  -0.009834471
C        0.337908128   0.930584597  -0.006933852
C        0.583520649   0.923382577   0.009966210
C        0.837081876   0.922387793   0.003091537
O        0.493744878   0.709283784   0.238449421
O        0.377512079   0.563044723   0.191638811
H        0.507577695   0.665951574   0.293952950
K_POINTS automatic 
  16 16 1   0 0 0 

