&INPUTPP
          outdir = './tmp_ads/'
          prefix = 'GF_op-ads'
          filplot = 'GF_op-ads-dens'
          plot_num = 0,
          spin_component = 0
/
&PLOT
          nfile = 1
          filepp(1) = 'GF_op-ads-dens'
          weight(1) = 1.0,
          fileout = 'GF_op-ads-dens.xsf'
          iflag = 3
          output_format = 5
/
