 &CONTROL
                 calculation = 'scf' ,
                      outdir = './tmp/' ,
                  pseudo_dir = '/home/deleted/pseudo_psl' ,
                      prefix = 'GI_ip' ,
                   verbosity = 'high' ,
               etot_conv_thr = 1.0D-5 ,
               forc_conv_thr = 4.0D-4 ,
                       nstep = 1000 ,
                    dipfield = .true. ,
 /
 &SYSTEM
                       ibrav = 4,
                           A = 9.88 ,
                           C = 15 ,
                         nat = 34,
                        ntyp = 4,
                     ecutwfc = 40.424239707 ,
                     ecutrho = 404.24239707 ,
                 occupations = 'smearing' ,
                     degauss = 0.01 ,
				   input_dft = 'vdW-DF' ,
    nspin = 2 ,
    starting_magnetization(1) = 0.5,
    starting_magnetization(2) = 0.5,
    starting_magnetization(3) = 0.5,
 /
 &ELECTRONS
            electron_maxstep = 50001,
                    conv_thr = 1.0D-6 ,
                 mixing_mode = 'local-TF' ,
                 mixing_beta = 0.5 ,
 /
ATOMIC_SPECIES
    C   12.01100  C.revpbe-n-kjpaw_psl.0.1.UPF 
    I  126.90400  I.revpbe-n-kjpaw_psl.0.2.UPF 
    O   15.99940  O.revpbe-n-kjpaw_psl.0.1.UPF 
    H   1.008000  H.revpbe-kjpaw_psl.0.1.UPF
ATOMIC_POSITIONS (crystal)
C        0.010265015   0.002474282   0.003223094
C        0.263017081   0.009770017   0.006966717
C        0.508470981   0.002442493   0.003430709
C        0.756604188  -0.002951976  -0.006084824
C        0.006081184   0.249075822   0.010001305
C        0.091999483   0.169523728   0.002952655
C        0.258795917   0.256174644  -0.008365485
C        0.345470925   0.174848084  -0.006393704
C        0.513512333   0.256213494  -0.007593663
C        0.593746815   0.169515246   0.003415553
C        0.759199852   0.249084593   0.010357144
C        0.839205474   0.162193749   0.006924179
C        0.009083664   0.501960968   0.024896375
C        0.086650738   0.415735713   0.017084503
C        0.248326035   0.500646250   0.001597194
C        0.323546812   0.419105506  -0.017747906
C        0.611406275   0.419243514  -0.016160149
C        0.768365166   0.500715871   0.002489828
C        0.845208678   0.415764769   0.017543505
C        0.015495405   0.756208132   0.017522413
C        0.093081863   0.669967278   0.025004464
C        0.256931088   0.756111320   0.017572107
C        0.333593815   0.671045377   0.002243872
C        0.490786035   0.752531359  -0.015914661
I        0.551169346   0.586045895  -0.060650314
C        0.778242303   0.752699227  -0.016296198
C        0.853619071   0.671198393   0.002466047
C        0.096089196   0.922841998   0.010257104
C        0.342998332   0.922877324   0.010485673
C        0.588657417   0.915759883  -0.007494756
C        0.843343229   0.915728507  -0.007585462
O        0.438232915   0.478917175   0.178334918
O        0.571572222   0.605168403   0.135125714
H        0.457103088   0.511622853   0.240867649
K_POINTS automatic 
  16 16 1   0 0 0 

