 &CONTROL
                 calculation = 'relax' ,
                      outdir = './tmp/' ,
                  pseudo_dir = '/home/deleted/pseudo_psl' ,
                      prefix = 'GI_ip' ,
                   verbosity = 'high' ,
               etot_conv_thr = 1.0D-5 ,
               forc_conv_thr = 4.0D-4 ,
                       nstep = 1000 ,
                    dipfield = .true. ,
 /
 &SYSTEM
                       ibrav = 4,
                           A = 9.88 ,
                           C = 15 ,
                         nat = 34,
                        ntyp = 4,
                     ecutwfc = 40.424239707 ,
                     ecutrho = 404.24239707 ,
                 occupations = 'smearing' ,
                     degauss = 0.01 ,
				   input_dft = 'vdW-DF' ,
    nspin = 2 ,
    starting_magnetization(1) = 0.5,
    starting_magnetization(2) = 0.5,
    starting_magnetization(3) = 0.5,
	starting_magnetization(4) = 0.5,
 /
 &ELECTRONS
            electron_maxstep = 50001,
                    conv_thr = 1.0D-6 ,
                 mixing_mode = 'local-TF' ,
                 mixing_beta = 0.5 ,
 /
 &IONS
                ion_dynamics = 'bfgs' ,
 /
ATOMIC_SPECIES
    C   12.01100  C.revpbe-n-kjpaw_psl.0.1.UPF 
    I  126.90400  I.revpbe-n-kjpaw_psl.0.2.UPF 
    O   15.99940  O.revpbe-n-kjpaw_psl.0.1.UPF 
    H   1.008000  H.revpbe-kjpaw_psl.0.1.UPF
ATOMIC_POSITIONS (crystal)
C       -0.003125607  -0.008005366   0.003790308
C        0.249550855  -0.000898290   0.007821082
C        0.495120241  -0.008005366   0.003790308
C        0.743437101  -0.013125797  -0.006165842
C       -0.007160769   0.238775895   0.011247319
C        0.078674953   0.159136254   0.003994706
C        0.245584440   0.245656745  -0.007216954
C        0.332141905   0.164283810  -0.005671885
C        0.500072304   0.245656745  -0.007216954
C        0.580461301   0.159136254   0.003994706
C        0.745936663   0.238775895   0.011247319
C        0.826015464   0.152030929   0.007728777
C       -0.004203928   0.491592145   0.026844209
C        0.073633521   0.405583058   0.018847397
C        0.235286410   0.490457792   0.002635240
C        0.310548373   0.408735313  -0.016829905
C        0.598186939   0.408735313  -0.016829905
C        0.755171382   0.490457792   0.002635240
C        0.831949535   0.405583058   0.018847397
C        0.001964235   0.745620481   0.018676380
C        0.079801558   0.659603115   0.026824820
C        0.243656246   0.745620481   0.018676380
C        0.320443271   0.660864606   0.002245650
C        0.477166091   0.742631222  -0.018043471
I        0.537701557   0.575403115  -0.063408888
C        0.765465131   0.742631222  -0.018043471
C        0.840421334   0.660864606   0.002245650
C        0.082727105   0.912391495   0.011121852
C        0.329664391   0.912391495   0.011121852
C        0.575496848   0.905551306  -0.007930258
C        0.830054457   0.905551306  -0.007930258
O        0.547096131   0.594192262   0.163052665
O        0.614393891   0.728787781   0.197898535
H        0.716538613   0.59359322    0.1804756
K_POINTS automatic 
  4 4 1   0 0 0 

