 &CONTROL
                 calculation = 'scf' ,
                      outdir = './tmp/' ,
                  pseudo_dir = '/home/deleted/pseudo_psl' ,
                      prefix = 'GBr_op' ,
                   verbosity = 'high' ,
               etot_conv_thr = 1.0D-5 ,
               forc_conv_thr = 4.0D-4 ,
                       nstep = 1000 ,
                    dipfield = .true. ,
 /
 &SYSTEM
                       ibrav = 4,
                           A = 9.88 ,
                           C = 15 ,
                         nat = 33,
                        ntyp = 3,
                     ecutwfc = 40.424239707 ,
                     ecutrho = 404.24239707 ,
                 occupations = 'smearing' ,
                     degauss = 0.01 ,
				   input_dft = 'vdW-DF' ,
    nspin = 2 ,
    starting_magnetization(1) = 0.5,
    starting_magnetization(2) = 0.5,
    starting_magnetization(3) = 0.5,
 /
 &ELECTRONS
            electron_maxstep = 50001,
                    conv_thr = 1.0D-6 ,
                 mixing_mode = 'local-TF' ,
                 mixing_beta = 0.5 ,
 /
ATOMIC_SPECIES
    C   12.01100  C.revpbe-n-kjpaw_psl.0.1.UPF 
   Br   79.90350  Br.revpbe-n-kjpaw_psl.0.2.UPF 
    O   15.99940  O.revpbe-n-kjpaw_psl.0.1.UPF 
ATOMIC_POSITIONS (crystal)
C        0.010995060   0.011054828   0.001727255
C        0.256818565   0.000917145  -0.000889742
C        0.513241714   0.011330202  -0.003930868
C        0.769919996   0.024127394  -0.001142633
C        0.019539696   0.266803243  -0.003795464
C        0.097668304   0.178231924  -0.002148810
C        0.264737562   0.255401144  -0.003096395
C        0.338804655   0.164051395  -0.002427599
C        0.505077774   0.256275669  -0.004108748
C        0.594726833   0.178652908  -0.004562419
C        0.761892134   0.266679332  -0.005756571
C        0.851435218   0.187846423  -0.004216761
C        0.013520756   0.512096685  -0.004844657
C        0.108363791   0.431979993  -0.004774614
C        0.285206122   0.510141186  -0.004393197
C        0.365208630   0.418189151  -0.004331576
C        0.567282048   0.418417831  -0.004478172
C        0.740601230   0.511103399  -0.004519344
C        0.839152072   0.431589255  -0.005802208
C        0.000843281   0.755835966  -0.001120551
C        0.095104565   0.676135582  -0.003234630
C        0.269225150   0.756911729  -0.002580731
C        0.367132452   0.678795517  -0.003360831
C        0.535924290   0.772023820  -0.004097890
Br       0.688538968   0.728871909   0.163552061
C        0.744453722   0.769024504   0.017707285
C        0.827473195   0.677083824   0.000012381
C        0.089445729   0.922004366   0.001276535
C        0.346509379   0.921784281  -0.002379451
C        0.602808550   0.933819276  -0.003717823
C        0.845178938   0.935656939   0.005619887
O        0.144327497   0.313284768   0.216282133
O        0.205508783   0.457211745   0.216867483
K_POINTS automatic 
  16 16 1   0 0 0 

