&INPUTPP
	outdir = './tmp_subs/'
	prefix = 'GBr_op-subs'
	filplot = 'GBr_chg-dn-subs'
	plot_num = 0,
	spin_component = 2
/
&PLOT
	nfile = 1
	filepp(1) = 'GBr_chg-dn-subs'
	weight(1) = 1.0,
	fileout = 'GBr_chg-dn-subs.xsf'
	iflag = 3
	output_format = 5
/
