 &CONTROL
                 calculation = 'scf' ,
                      outdir = './tmp/' ,
                  pseudo_dir = '/home/deleted/pseudo_psl' ,
                      prefix = 'GBr_op' ,
                   verbosity = 'high' ,
               etot_conv_thr = 1.0D-5 ,
               forc_conv_thr = 4.0D-4 ,
                       nstep = 1000 ,
                    dipfield = .true. ,
 /
 &SYSTEM
                       ibrav = 4,
                           A = 9.88 ,
                           C = 15 ,
                         nat = 33,
                        ntyp = 3,
                     ecutwfc = 40.424239707 ,
                     ecutrho = 404.24239707 ,
                 occupations = 'smearing' ,
                     degauss = 0.01 ,
				   input_dft = 'vdW-DF' ,
    nspin = 2 ,
    starting_magnetization(1) = 0.5,
    starting_magnetization(2) = 0.5,
    starting_magnetization(3) = 0.5,
 /
 &ELECTRONS
            electron_maxstep = 50001,
                    conv_thr = 1.0D-6 ,
                 mixing_mode = 'local-TF' ,
                 mixing_beta = 0.5 ,
 /
ATOMIC_SPECIES
    C   12.01100  C.revpbe-n-kjpaw_psl.0.1.UPF 
   Br   79.90350  Br.revpbe-n-kjpaw_psl.0.2.UPF 
    O   15.99940  O.revpbe-n-kjpaw_psl.0.1.UPF 
ATOMIC_POSITIONS (crystal)
C       -0.001727006  -0.000755977  -0.006471524
C        0.244403919  -0.011192160  -0.006405247
C        0.500971028  -0.000755977  -0.006471524
C        0.756893344   0.013786688  -0.006871684
C        0.006918501   0.255667011  -0.007211084
C        0.084662005   0.166436751  -0.006665953
C        0.251713407   0.243404476  -0.006857788
C        0.325795331   0.151590665  -0.006404848
C        0.491691070   0.243404476  -0.006857788
C        0.581774745   0.166436751  -0.006665953
C        0.748748510   0.255667011  -0.007211084
C        0.838416816   0.176833634  -0.006982689
C        0.000421831   0.500843663  -0.008427094
C        0.095421248   0.420574679  -0.008195815
C        0.273284631   0.498737207  -0.008666381
C        0.352075344   0.405776273  -0.007868518
C        0.553700928   0.405776273  -0.007868518
C        0.725452576   0.498737207  -0.008666381
C        0.825153430   0.420574679  -0.008195815
C       -0.012777339   0.744867276  -0.007899811
C        0.082330798   0.664661597  -0.008307409
C        0.257644616   0.744867276  -0.007899811
C        0.356636782   0.666831480  -0.008474172
C        0.528620087   0.759898376  -0.006276482
Br       0.595269058   0.690538118   0.178131610
C        0.731278290   0.759898376  -0.006276482
C        0.810194697   0.666831480  -0.008474172
C        0.075832399   0.909927984  -0.006717919
C        0.334095584   0.909927984  -0.006717919
C        0.591233392   0.922576039  -0.006625916
C        0.831342646   0.922576039  -0.006625916
O        0.591442333   0.682884668   0.427940123
O        0.599031003   0.698062006   0.509823932
K_POINTS automatic 
  16 16 1   0 0 0 

