 &CONTROL
                 calculation = 'scf' ,
                      outdir = './tmp/' ,
                  pseudo_dir = '/home/deleted/pseudo_psl' ,
                      prefix = 'GF_op' ,
                   verbosity = 'high' ,
               etot_conv_thr = 1.0D-5 ,
               forc_conv_thr = 4.0D-4 ,
                       nstep = 1000 ,
                    dipfield = .true. ,
 /
 &SYSTEM
                       ibrav = 4,
                           A = 9.88 ,
                           C = 15 ,
                         nat = 34,
                        ntyp = 4,
                     ecutwfc = 40.424239707 ,
                     ecutrho = 404.24239707 ,
                 occupations = 'smearing' ,
                     degauss = 0.01 ,
				   input_dft = 'vdW-DF' ,
    nspin = 2 ,
    starting_magnetization(1) = 0.5,
    starting_magnetization(2) = 0.5,
    starting_magnetization(3) = 0.5,
 /
 &ELECTRONS
            electron_maxstep = 50001,
                    conv_thr = 1.0D-6 ,
                 mixing_mode = 'local-TF' ,
                 mixing_beta = 0.5 ,
 /
ATOMIC_SPECIES
    C   12.01100  C.revpbe-n-kjpaw_psl.0.1.UPF 
    F   18.99800  F.revpbe-n-kjpaw_psl.0.1.UPF 
    O   15.99940  O.revpbe-n-kjpaw_psl.0.1.UPF 
    H   1.008000  H.revpbe-kjpaw_psl.0.1.UPF
ATOMIC_POSITIONS (crystal)
C       -0.021529998  -0.021207849   0.005337994
C        0.225781345  -0.025878072   0.013728372
C        0.477839539  -0.020070314   0.016954064
C        0.726943109  -0.019170334   0.004880823
C       -0.020276696   0.230183177   0.003212699
C        0.061710407   0.146134629   0.008263890
C        0.229640222   0.227471325   0.010440267
C        0.307386729   0.138146478   0.011976190
C        0.473117057   0.226822825   0.009572150
C        0.559688292   0.146079236   0.009510809
C        0.725792249   0.230159953   0.006113279
C        0.811380556   0.147780888   0.003960820
C       -0.023404027   0.477780153   0.005909524
C        0.065436465   0.395705399   0.006602152
C        0.239903726   0.478952184   0.014831898
C        0.321385969   0.389379387   0.011074901
C        0.543787295   0.389561725   0.004851835
C        0.712982569   0.477664430  -0.001667374
C        0.804976438   0.395888025   0.003290301
C       -0.025315810   0.726704951   0.005034453
C        0.059211898   0.643246802   0.010025671
C        0.226581618   0.724717025   0.018523878
C        0.310955181   0.643741222   0.026276512
C        0.476740147   0.736580987   0.054280416
F        0.600623448   0.670089873  -0.069716302
C        0.742928037   0.740055843  -0.027921375
C        0.808309902   0.646331356  -0.009024531
C        0.058353224   0.892474490   0.008026785
C        0.310382341   0.893097291   0.019076998
C        0.564225950   0.900762626   0.020819344
C        0.813352595   0.898681109  -0.006369765
O        0.534940092   0.683799537   0.106947186
O        0.892840930   1.117122421   0.176186011
H        0.845863534   1.067296045   0.233023728
K_POINTS automatic 
  16 16 1   0 0 0 

