 &CONTROL
                 calculation = 'scf' ,
                      outdir = './tmp/' ,
                  pseudo_dir = '/home/deleted/pseudo_psl' ,
                      prefix = 'GBr_op' ,
                   verbosity = 'high' ,
               etot_conv_thr = 1.0D-5 ,
               forc_conv_thr = 4.0D-4 ,
                       nstep = 1000 ,
                    dipfield = .true. ,
 /
 &SYSTEM
                       ibrav = 4,
                           A = 9.88 ,
                           C = 15 ,
                         nat = 34,
                        ntyp = 4,
                     ecutwfc = 40.424239707 ,
                     ecutrho = 404.24239707 ,
                 occupations = 'smearing' ,
                     degauss = 0.01 ,
				   input_dft = 'vdW-DF' ,
 /
 &ELECTRONS
            electron_maxstep = 50001,
                    conv_thr = 1.0D-6 ,
                 mixing_mode = 'local-TF' ,
                 mixing_beta = 0.5 ,
 /
ATOMIC_SPECIES
    C   12.01100  C.revpbe-n-kjpaw_psl.0.1.UPF 
   Br   79.90350  Br.revpbe-n-kjpaw_psl.0.2.UPF 
    O   15.99940  O.revpbe-n-kjpaw_psl.0.1.UPF 
    H   1.008000  H.revpbe-kjpaw_psl.0.1.UPF
ATOMIC_POSITIONS crystal 
C       -0.007535439  -0.002048898  -0.006016264
C        0.238782741  -0.012222971  -0.005545428
C        0.495322498  -0.002042129  -0.005762482
C        0.751686842   0.013470251  -0.006206526
C        0.001720633   0.254766575  -0.005816924
C        0.078902277   0.165284508  -0.005649413
C        0.245849504   0.241887461  -0.005530000
C        0.319844023   0.149841246  -0.005605956
C        0.485867698   0.241910425  -0.005992865
C        0.576201821   0.165290703  -0.005802899
C        0.742811816   0.254791664  -0.005908125
C        0.832662019   0.175547598  -0.005840458
C       -0.005024198   0.500389979  -0.006282517
C        0.090150910   0.419595389  -0.006129624
C        0.267185373   0.497426720  -0.006395550
C        0.345638393   0.404085713  -0.005799572
C        0.548433132   0.403936889  -0.006598852
C        0.719799565   0.497370125  -0.006666919
C        0.819023991   0.419576915  -0.006269926
C       -0.018826976   0.743904047  -0.006273270
C        0.076383852   0.663143712  -0.006247331
C        0.252382349   0.743917288  -0.006109550
C        0.351866273   0.666298323  -0.006502722
C        0.523531993   0.759347010  -0.006591862
Br       0.696612104   0.783329896   0.242386264
C        0.725767733   0.759399866  -0.007040006
C        0.804066691   0.666252276  -0.006793102
C        0.069732249   0.908608440  -0.005842633
C        0.328665339   0.908636902  -0.005706686
C        0.585600959   0.921290505  -0.006189446
C        0.825574869   0.921327098  -0.006661074
O        0.642012060   0.566702357   0.214791460
O        0.476983148   0.465092813   0.209681518
H        0.455911923   0.469019676   0.145627704
K_POINTS automatic 
  16 16 1   0 0 0 

