&PROJWFC
	outdir = './tmp',
	prefix = 'GCl_ip',
	filpdos = 'GCl_pdos',
	ngauss = 1,
	degauss = 0.01,
	DeltaE = 0.01,
	lsym = .true.
/
