 &CONTROL
                 calculation = 'nscf' ,
                      outdir = './tmp/' ,
                  pseudo_dir = '/home/deleted/pseudo_psl' ,
                      prefix = 'GCl_ip' ,
                   verbosity = 'high' ,
               etot_conv_thr = 1.0D-5 ,
               forc_conv_thr = 4.0D-4 ,
                       nstep = 1000 ,
                    dipfield = .true. ,
 /
 &SYSTEM
                       ibrav = 4,
                           A = 9.88 ,
                           C = 15 ,
                         nat = 33,
                        ntyp = 3,
                     ecutwfc = 40.424239707 ,
                     ecutrho = 404.24239707 ,
                 occupations = 'tetrahedra' ,
                     degauss = 0.01 ,
				   input_dft = 'vdW-DF' ,
 /
 &ELECTRONS
            electron_maxstep = 50001,
                    conv_thr = 1.0D-6 ,
                 mixing_mode = 'local-TF' ,
                 mixing_beta = 0.5 ,
 /
ATOMIC_SPECIES
    C   12.01100  C.revpbe-n-kjpaw_psl.0.1.UPF 
   Cl   35.45200  Cl.revpbe-n-kjpaw_psl.0.3.0.UPF 
    O   15.99940  O.revpbe-n-kjpaw_psl.0.1.UPF 
ATOMIC_POSITIONS crystal 
C        0.004212781   0.014864867   0.003647515
C        0.253143453   0.013543536   0.001944201
C        0.503207100   0.014955596   0.010737027
C        0.755542614   0.017452622   0.010711301
C        0.004144756   0.265002997   0.015213617
C        0.087405430   0.180778467   0.011374858
C        0.252378482   0.260588209   0.017176057
C        0.335843596   0.180082638   0.001196182
C        0.503844151   0.261833460  -0.011086416
C        0.587629746   0.181495701   0.005005401
C        0.753976375   0.265506520   0.006376624
C        0.838835780   0.183139382   0.011409380
C        0.003457448   0.515239143   0.008434582
C        0.088139153   0.432706581   0.017099487
C        0.253051815   0.514050695   0.028141992
C        0.324918076   0.419767581   0.055914285
C        0.592586048   0.417843421  -0.041420808
C        0.751402629   0.512057650  -0.016953529
C        0.835848164   0.431267580   0.001978700
C        0.000762811   0.763691056  -0.001209089
C        0.086918463   0.681187984   0.004786236
C        0.255310436   0.763849283   0.009549430
C        0.340600560   0.680046195   0.019646075
C        0.508674921   0.769981726   0.015292516
Cl       0.510660463   0.479181590  -0.125576163
C        0.754198122   0.769447044   0.000835308
C        0.832101595   0.680911830  -0.009065588
C        0.085787900   0.930334424   0.002111343
C        0.337459111   0.930355501   0.005566787
C        0.588529709   0.933699368   0.013082802
C        0.837981059   0.933748455   0.005431073
O        0.428711324   0.464026227   0.113498753
O        0.593738125   0.693729010   0.009150060
K_POINTS automatic 
  20 20 1   0 0 0 

