 &CONTROL
                 calculation = 'scf' ,
                      outdir = './tmp/' ,
                  pseudo_dir = '/home/deleted/pseudo_psl' ,
                      prefix = 'GCl_op' ,
                   verbosity = 'high' ,
               etot_conv_thr = 1.0D-5 ,
               forc_conv_thr = 4.0D-4 ,
                       nstep = 1000 ,
                    dipfield = .true. ,
 /
 &SYSTEM
                       ibrav = 4,
                           A = 9.88 ,
                           C = 15 ,
                         nat = 34,
                        ntyp = 4,
                     ecutwfc = 40.424239707 ,
                     ecutrho = 404.24239707 ,
                 occupations = 'smearing' ,
                     degauss = 0.01 ,
				   input_dft = 'vdW-DF' ,
 /
 &ELECTRONS
            electron_maxstep = 50001,
                    conv_thr = 1.0D-6 ,
                 mixing_mode = 'local-TF' ,
                 mixing_beta = 0.5 ,
 /
ATOMIC_SPECIES
    C   12.01100  C.revpbe-n-kjpaw_psl.0.1.UPF 
   Cl   35.45200  Cl.revpbe-n-kjpaw_psl.0.3.0.UPF 
    O   15.99940  O.revpbe-n-kjpaw_psl.0.1.UPF 
    H   1.008000  H.revpbe-kjpaw_psl.0.1.UPF
ATOMIC_POSITIONS crystal 
C       -0.001822139  -0.006621960  -0.004466583
C        0.243821931  -0.012841399  -0.012400304
C        0.495605284  -0.006672671  -0.004344086
C        0.749274076  -0.001794858   0.013098218
C       -0.000713292   0.243686368  -0.003153429
C        0.081422301   0.159711507  -0.007681509
C        0.248689200   0.239644900  -0.011617043
C        0.325385311   0.150289198  -0.013854147
C        0.491477398   0.239576174  -0.011495748
C        0.578777500   0.159674823  -0.007478556
C        0.744857238   0.243663777  -0.003012569
C        0.831086010   0.161641797   0.001790486
C       -0.004141314   0.491237390  -0.003663229
C        0.085272396   0.409254759  -0.003174984
C        0.258811915   0.490081704  -0.000903808
C        0.340250753   0.401693864  -0.007112797
C        0.561927169   0.401595474  -0.007038674
C        0.731662331   0.489898324  -0.000828576
C        0.824397060   0.409144738  -0.003065084
C       -0.006416469   0.739287695  -0.006388441
C        0.078335526   0.656212900  -0.008089938
C        0.246173205   0.739306943  -0.006218326
C        0.332697460   0.658410387   0.005816743
C        0.490879246   0.754375936   0.024797613
Cl       0.588114591   0.676139856   0.087770732
C        0.763615086   0.754028769   0.024525964
C        0.826044671   0.658284514   0.005628287
C        0.076862475   0.905470494  -0.008601984
C        0.329087311   0.905491928  -0.008452535
C        0.581349572   0.915517928   0.012850535
C        0.834376098   0.915422760   0.012533068
O        0.761405297   0.921218448   0.231189733
O        0.621910236   0.927054298   0.211921505
H        0.788368948   0.966312920   0.291116833
K_POINTS automatic 
  16 16 1   0 0 0 

