 &CONTROL
                 calculation = 'relax' ,
                      outdir = './tmp/' ,
                  pseudo_dir = '/home/deleted/pseudo_psl' ,
                      prefix = 'GCl_op' ,
                   verbosity = 'high' ,
               etot_conv_thr = 1.0D-5 ,
               forc_conv_thr = 4.0D-4 ,
                       nstep = 1000 ,
                    dipfield = .true. ,
 /
 &SYSTEM
                       ibrav = 4,
                           A = 9.88 ,
                           C = 15 ,
                         nat = 34,
                        ntyp = 4,
                     ecutwfc = 40.424239707 ,
                     ecutrho = 404.24239707 ,
                 occupations = 'smearing' ,
                     degauss = 0.01 ,
				   input_dft = 'vdW-DF' ,
 /
 &ELECTRONS
            electron_maxstep = 50001,
                    conv_thr = 1.0D-6 ,
                 mixing_mode = 'local-TF' ,
                 mixing_beta = 0.5 ,
 /
 &IONS
                ion_dynamics = 'bfgs' ,
 /
ATOMIC_SPECIES
    C   12.01100  C.revpbe-n-kjpaw_psl.0.1.UPF 
   Cl   35.45200  Cl.revpbe-n-kjpaw_psl.0.3.0.UPF 
    O   15.99940  O.revpbe-n-kjpaw_psl.0.1.UPF 
    H   1.008000  H.revpbe-kjpaw_psl.0.1.UPF
ATOMIC_POSITIONS crystal 
C       -0.002555185  -0.007768995  -0.005308622
C        0.242965552  -0.014068895  -0.013285075
C        0.494786190  -0.007768995  -0.005308622
C        0.748517731  -0.002964538   0.012267658
C       -0.001568766   0.242501892  -0.004036594
C        0.080614221   0.158549502  -0.008675960
C        0.247885070   0.238474457  -0.012628863
C        0.324573114   0.149146228  -0.014880838
C        0.490589386   0.238474457  -0.012628863
C        0.577935280   0.158549502  -0.008675960
C        0.744070658   0.242501892  -0.004036594
C        0.830312336   0.160624673   0.000952889
C       -0.005035720   0.489928561  -0.004378952
C        0.084388355   0.408031460  -0.004019178
C        0.257947615   0.488811546  -0.001781223
C        0.339599384   0.400571652  -0.008039374
C        0.560972267   0.400571652  -0.008039374
C        0.730863931   0.488811546  -0.001781223
C        0.823643104   0.408031460  -0.004019178
C       -0.007182676   0.738043626  -0.006985540
C        0.077499853   0.654999708  -0.008732481
C        0.245226302   0.738043626  -0.006985540
C        0.331669300   0.656988583   0.005105336
C        0.489701415   0.753187995   0.024431107
Cl       0.587363930   0.674727861   0.087551007
C        0.763486581   0.753187995   0.024431107
C        0.825319283   0.656988583   0.005105336
C        0.076086026   0.904290762  -0.009343044
C        0.328204736   0.904290762  -0.009343044
C        0.580687736   0.914431958   0.012155540
C        0.833744221   0.914431958   0.012155540
O        0.797111520   0.964355432   0.222712643
O        0.667243913   0.964355432   0.222712643
H        0.732177717   0.922066345   0.313330705
K_POINTS automatic 
  4 4 1   0 0 0 

