 &CONTROL
                 calculation = 'bands' ,
                      outdir = './tmp/' ,
                  pseudo_dir = '/home/deleted/pseudo_psl' ,
                      prefix = 'GBr_ip' ,
                   verbosity = 'high' ,
               etot_conv_thr = 1.0D-5 ,
               forc_conv_thr = 4.0D-4 ,
                       nstep = 1000 ,
                    dipfield = .true. ,
 /
 &SYSTEM
                       ibrav = 4,
                           A = 9.88 ,
                           C = 15 ,
                         nat = 34,
                        ntyp = 4,
                     ecutwfc = 40.424239707 ,
                     ecutrho = 404.24239707 ,
                 occupations = 'tetrahedra' ,
                     degauss = 0.01 ,
				   input_dft = 'vdW-DF' ,
    nspin = 2 ,
    starting_magnetization(1) = 0.5,
    starting_magnetization(2) = 0.5,
    starting_magnetization(3) = 0.5,
 /
 &ELECTRONS
            electron_maxstep = 50001,
                    conv_thr = 1.0D-6 ,
                 mixing_mode = 'local-TF' ,
                 mixing_beta = 0.5 ,
 /
ATOMIC_SPECIES
    C   12.01100  C.revpbe-n-kjpaw_psl.0.1.UPF 
   Br   79.90350  Br.revpbe-n-kjpaw_psl.0.2.UPF 
    O   15.99940  O.revpbe-n-kjpaw_psl.0.1.UPF 
    H   1.008000  H.revpbe-kjpaw_psl.0.1.UPF
ATOMIC_POSITIONS (crystal)
C        0.014248095   0.022717381   0.000583751
C        0.266841148   0.029537025   0.003706433
C        0.512554525   0.022592743   0.000451075
C        0.760707712   0.017259295  -0.005863319
C        0.010430009   0.269689916   0.005846012
C        0.096258814   0.189988244   0.000479210
C        0.264092916   0.277169003  -0.007441089
C        0.349741760   0.195297408  -0.006066683
C        0.517209932   0.277061734  -0.007565554
C        0.597811406   0.189867616   0.000376316
C        0.763336633   0.269628050   0.005827513
C        0.843579091   0.183033423   0.003756328
C        0.013184851   0.522249555   0.016648259
C        0.091063597   0.436364444   0.010966475
C        0.253977381   0.521342972  -0.000584897
C        0.330721724   0.440483073  -0.015194226
C        0.613960422   0.440387821  -0.015238926
C        0.771447026   0.521277258  -0.000289799
C        0.849397657   0.436289406   0.011128639
C        0.019377844   0.776259351   0.011313064
C        0.097230812   0.690316324   0.016657310
C        0.260980839   0.776212277   0.010928131
C        0.338897530   0.691189385  -0.000542970
C        0.496533916   0.772038225  -0.014917997
Br       0.555280710   0.606359595  -0.041048654
C        0.779641420   0.772063440  -0.014442901
C        0.856377251   0.691177331   0.000018905
C        0.100016143   0.942943770   0.005990100
C        0.347031435   0.942873403   0.005773863
C        0.593194951   0.935381636  -0.007276598
C        0.846424723   0.935495929  -0.007154627
O        0.560964706   0.498574450   0.195426740
O        0.542641131   0.624233982   0.166173203
H        0.569649743   0.512776229   0.260352761
K_POINTS automatic 
  20 20 1   0 0 0 

