 &CONTROL
                 calculation = 'scf' ,
                      outdir = './tmp/' ,
                  pseudo_dir = '/home/deleted/pseudo_psl' ,
                      prefix = 'GF_ip' ,
                   verbosity = 'high' ,
               etot_conv_thr = 1.0D-5 ,
               forc_conv_thr = 4.0D-4 ,
                       nstep = 1000 ,
                    dipfield = .true. ,
 /
 &SYSTEM
                       ibrav = 4,
                           A = 9.88 ,
                           C = 15 ,
                         nat = 34,
                        ntyp = 4,
                     ecutwfc = 40.424239707 ,
                     ecutrho = 404.24239707 ,
                 occupations = 'smearing' ,
                     degauss = 0.01 ,
				   input_dft = 'vdW-DF' ,
    nspin = 2 ,
    starting_magnetization(1) = 0.5,
    starting_magnetization(2) = 0.5,
    starting_magnetization(3) = 0.5,
 /
 &ELECTRONS
            electron_maxstep = 50001,
                    conv_thr = 1.0D-6 ,
                 mixing_mode = 'local-TF' ,
                 mixing_beta = 0.5 ,
 /
ATOMIC_SPECIES
    C   12.01100  C.revpbe-n-kjpaw_psl.0.1.UPF 
    F   18.99800  F.revpbe-n-kjpaw_psl.0.1.UPF 
    O   15.99940  O.revpbe-n-kjpaw_psl.0.1.UPF 
    H   1.008000  H.revpbe-kjpaw_psl.0.1.UPF
ATOMIC_POSITIONS (crystal)
C       -0.002108906   0.005878358  -0.008317752
C        0.248889675   0.007681699  -0.003374018
C        0.499170218   0.008873931   0.001808687
C        0.745923918   0.005639833  -0.005277438
C       -0.002103917   0.256653451   0.000969146
C        0.080874999   0.172051365   0.002225249
C        0.245235322   0.253127984   0.011621139
C        0.330617113   0.174705768  -0.001031703
C        0.498679665   0.257766176  -0.012093122
C        0.582394377   0.174239719  -0.009430373
C        0.748753470   0.257318726  -0.010447856
C        0.832038869   0.173270690  -0.006648684
C       -0.000564369   0.507236398  -0.004343614
C        0.081583689   0.424225901   0.007681811
C        0.244067756   0.508597996   0.031753044
C        0.316278517   0.410925216   0.054818102
C        0.588722958   0.416491915  -0.026257961
C        0.749531665   0.506205119  -0.026532067
C        0.833449669   0.423476916  -0.014830598
C       -0.000188129   0.757605109  -0.013020456
C        0.082237986   0.673834285  -0.002852199
C        0.247177568   0.757015151   0.009923343
C        0.325731697   0.673175911   0.033121293
C        0.495478672   0.773921048   0.057656174
F        0.608338276   0.685644026  -0.064336798
C        0.761002172   0.763411939  -0.036246622
C        0.835328338   0.675360605  -0.027945141
C        0.081686452   0.923613308  -0.008184063
C        0.331494047   0.924578487   0.003368000
C        0.582680050   0.928354922   0.010288973
C        0.831358065   0.923039372  -0.016355257
O        0.414508044   0.444447393   0.113973383
O        0.560148526   0.748005738   0.119835498
H        0.753261419   0.536781586   0.192472362
K_POINTS automatic 
  16 16 1   0 0 0 

