 &CONTROL
                 calculation = 'bands' ,
                      outdir = './tmp/' ,
                  pseudo_dir = '/home/deleted/pseudo_psl' ,
                      prefix = 'GBr_ip' ,
                   verbosity = 'high' ,
               etot_conv_thr = 1.0D-5 ,
               forc_conv_thr = 4.0D-4 ,
                       nstep = 1000 ,
                    dipfield = .true. ,
 /
 &SYSTEM
                       ibrav = 4,
                           A = 9.88 ,
                           C = 15 ,
                         nat = 34,
                        ntyp = 4,
                     ecutwfc = 40.424239707 ,
                     ecutrho = 404.24239707 ,
                 occupations = 'tetrahedra' ,
                     degauss = 0.01 ,
				   input_dft = 'vdW-DF' ,
 /
 &ELECTRONS
            electron_maxstep = 50001,
                    conv_thr = 1.0D-6 ,
                 mixing_mode = 'local-TF' ,
                 mixing_beta = 0.5 ,
 /
ATOMIC_SPECIES
    C   12.01100  C.revpbe-n-kjpaw_psl.0.1.UPF 
   Br   79.90350  Br.revpbe-n-kjpaw_psl.0.2.UPF 
    O   15.99940  O.revpbe-n-kjpaw_psl.0.1.UPF 
    H   1.008000  H.revpbe-kjpaw_psl.0.1.UPF
ATOMIC_POSITIONS crystal 
C        0.001479967   0.015445830  -0.000418094
C        0.250778647   0.014577517   0.003848823
C        0.500684726   0.015767198   0.008745934
C        0.752295972   0.017987432   0.004772615
C        0.001034155   0.265514910   0.008419759
C        0.083390720   0.181403707   0.006568151
C        0.248099843   0.261613972   0.018776481
C        0.333797371   0.180725155   0.003545368
C        0.500159537   0.262180939  -0.012074555
C        0.584610576   0.181678224   0.001732328
C        0.751068518   0.265585725   0.001255181
C        0.834682303   0.182818815   0.004768109
C        0.001116120   0.515335183   0.005867407
C        0.084730710   0.431560252   0.012976101
C        0.250594486   0.512111667   0.029778160
C        0.316282289   0.416950622   0.051947149
C        0.589757995   0.418153900  -0.042860091
C        0.748889544   0.512623972  -0.019572786
C        0.833880521   0.431756731  -0.001658779
C       -0.000953510   0.764509707  -0.001977537
C        0.084346903   0.681725794   0.005258640
C        0.252514974   0.764473927   0.011725877
C        0.338803801   0.681469101   0.021873928
C        0.504645202   0.770980488   0.013668495
Br       0.501217143   0.480604336  -0.140193157
C        0.752779684   0.770348076  -0.002761878
C        0.829896526   0.681566076  -0.011540931
C        0.083202335   0.930826802   0.001700555
C        0.334452530   0.930730420   0.006685477
C        0.585758828   0.934695133   0.009311965
C        0.835253633   0.934198517   0.000222706
O        0.439319678   0.459596919   0.108639008
O        0.590600477   0.693774259   0.007665138
H        0.490100453   0.570529792   0.122199358
K_POINTS crystal_b 
4
0.0000000000    0.0000000000    0.0000000000 17
0.0000000000    0.5000000000    0.0000000000 10
0.3333333333    0.3333333333    0.0000000000 20
0.0000000000    0.0000000000    0.0000000000 1

