 &CONTROL
                 calculation = 'nscf' ,
                      outdir = './tmp/' ,
                  pseudo_dir = '/home/deleted/pseudo_psl' ,
                      prefix = 'GBr_ip' ,
                   verbosity = 'high' ,
               etot_conv_thr = 1.0D-5 ,
               forc_conv_thr = 4.0D-4 ,
                       nstep = 1000 ,
                    dipfield = .true. ,
 /
 &SYSTEM
                       ibrav = 4,
                           A = 9.88 ,
                           C = 15 ,
                         nat = 34,
                        ntyp = 4,
                     ecutwfc = 40.424239707 ,
                     ecutrho = 404.24239707 ,
                 occupations = 'tetrahedra' ,
                     degauss = 0.01 ,
				   input_dft = 'vdW-DF' ,
 /
 &ELECTRONS
            electron_maxstep = 50001,
                    conv_thr = 1.0D-6 ,
                 mixing_mode = 'local-TF' ,
                 mixing_beta = 0.5 ,
 /
ATOMIC_SPECIES
    C   12.01100  C.revpbe-n-kjpaw_psl.0.1.UPF 
   Br   79.90350  Br.revpbe-n-kjpaw_psl.0.2.UPF 
    O   15.99940  O.revpbe-n-kjpaw_psl.0.1.UPF 
    H   1.008000  H.revpbe-kjpaw_psl.0.1.UPF
ATOMIC_POSITIONS crystal 
C        0.002363371   0.001550731   0.001650493
C        0.254931642   0.008269967   0.004272240
C        0.500739864   0.001423104   0.002242206
C        0.748735063  -0.004170859  -0.003193761
C       -0.001521604   0.248365710   0.005911732
C        0.084280842   0.168532259   0.002144587
C        0.252139172   0.256008469  -0.002505461
C        0.337874236   0.174217656  -0.002229812
C        0.505395183   0.255877372  -0.002969551
C        0.585812631   0.168410488   0.001984653
C        0.751497497   0.248306180   0.005575868
C        0.831725045   0.161765045   0.003710840
C        0.001293431   0.500974765   0.013709427
C        0.078854481   0.414870646   0.010504819
C        0.242352548   0.500101868   0.004703052
C        0.320471043   0.419697680  -0.004839148
C        0.600804628   0.419604300  -0.006404269
C        0.759478243   0.500113636   0.002883172
C        0.837696493   0.414881873   0.009645068
C        0.007767585   0.755161840   0.009576592
C        0.085314381   0.669089266   0.013837555
C        0.249007787   0.755157223   0.010627779
C        0.327216590   0.669983421   0.004376191
C        0.485652832   0.750327945  -0.005952658
Br       0.543062884   0.585104150  -0.027813008
C        0.766403764   0.750452496  -0.007879200
C        0.844524706   0.670064337   0.002362167
C        0.088175251   0.921747367   0.005645477
C        0.335143923   0.921697216   0.006288304
C        0.581150862   0.913988982  -0.003258823
C        0.834557027   0.914132618  -0.004107788
O        0.550581049   0.605955405   0.137846669
O        0.474777149   0.454824748   0.179657709
H        0.563571194   0.443566896   0.198839725
K_POINTS automatic 
  20 20 1   0 0 0 

