 &CONTROL
                 calculation = 'scf' ,
                      outdir = './tmp/' ,
                  pseudo_dir = '/home/deleted/pseudo_psl' ,
                      prefix = 'GCl_ip' ,
                   verbosity = 'high' ,
               etot_conv_thr = 1.0D-5 ,
               forc_conv_thr = 4.0D-4 ,
                       nstep = 1000 ,
                    dipfield = .true. ,
 /
 &SYSTEM
                       ibrav = 4,
                           A = 9.88 ,
                           C = 15 ,
                         nat = 34,
                        ntyp = 4,
                     ecutwfc = 40.424239707 ,
                     ecutrho = 404.24239707 ,
                 occupations = 'smearing' ,
                     degauss = 0.01 ,
				   input_dft = 'vdW-DF' ,
    nspin = 2 ,
    starting_magnetization(1) = 0.5,
    starting_magnetization(2) = 0.5,
    starting_magnetization(3) = 0.5,
 /
 &ELECTRONS
            electron_maxstep = 50001,
                    conv_thr = 1.0D-6 ,
                 mixing_mode = 'local-TF' ,
                 mixing_beta = 0.5 ,
 /
ATOMIC_SPECIES
    C   12.01100  C.revpbe-n-kjpaw_psl.0.1.UPF 
   Cl   35.45200  Cl.revpbe-n-kjpaw_psl.0.3.0.UPF 
    O   15.99940  O.revpbe-n-kjpaw_psl.0.1.UPF 
    H   1.008000  H.revpbe-kjpaw_psl.0.1.UPF
ATOMIC_POSITIONS (crystal)
C        0.000974881   0.002840239  -0.005186405
C        0.253434162   0.008905121  -0.005149646
C        0.499804854   0.002759623  -0.006032666
C        0.747824675  -0.002269709  -0.006170585
C       -0.002197953   0.250259145  -0.005291299
C        0.083457363   0.170122900  -0.005548790
C        0.251888132   0.257811095  -0.006387624
C        0.336559461   0.175167405  -0.005781015
C        0.503859121   0.257717130  -0.005676553
C        0.584613274   0.170041165  -0.005298886
C        0.750404347   0.250242818  -0.004836054
C        0.830967162   0.163979282  -0.005123602
C        0.000208776   0.502474432  -0.004777218
C        0.078452076   0.416784636  -0.005657899
C        0.242768727   0.501759621  -0.007593556
C        0.322888536   0.422252404  -0.008117845
C        0.597228289   0.422166080  -0.005862096
C        0.756860765   0.501719319  -0.005037685
C        0.836272133   0.416766321  -0.004498303
C        0.005939987   0.756149722  -0.004483913
C        0.084206218   0.670458536  -0.004820509
C        0.248147074   0.756142704  -0.006064201
C        0.327517394   0.671206917  -0.008201858
C        0.487116560   0.750741757  -0.009530198
Cl       0.542280843   0.586833613  -0.008572783
C        0.761499181   0.750771892  -0.006367460
C        0.841576363   0.671210373  -0.005116528
C        0.086603523   0.922662250  -0.004812844
C        0.334010108   0.922649680  -0.005685261
C        0.580553092   0.915107411  -0.007286551
C        0.832564586   0.915204717  -0.005902806
O        0.452795018   0.662428076   0.212371145
O        0.583238420   0.784640328   0.209598671
H        0.685615829   0.524402272   0.204700638
K_POINTS automatic 
  16 16 1   0 0 0 

