 &CONTROL
                 calculation = 'bands' ,
                      outdir = './tmp/' ,
                  pseudo_dir = '/home/deleted/pseudo_psl' ,
                      prefix = 'GF_op' ,
                   verbosity = 'high' ,
               etot_conv_thr = 1.0D-5 ,
               forc_conv_thr = 4.0D-4 ,
                       nstep = 1000 ,
                    dipfield = .true. ,
 /
 &SYSTEM
                       ibrav = 4,
                           A = 9.88 ,
                           C = 15 ,
                         nat = 34,
                        ntyp = 4,
                     ecutwfc = 40.424239707 ,
                     ecutrho = 404.24239707 ,
                 occupations = 'tetrahedra' ,
                     degauss = 0.01 ,
				   input_dft = 'vdW-DF' ,
    nspin = 2 ,
    starting_magnetization(1) = 0.5,
    starting_magnetization(2) = 0.5,
    starting_magnetization(3) = 0.5,
 /
 &ELECTRONS
            electron_maxstep = 50001,
                    conv_thr = 1.0D-6 ,
                 mixing_mode = 'local-TF' ,
                 mixing_beta = 0.5 ,
 /
ATOMIC_SPECIES
    C   12.01100  C.revpbe-n-kjpaw_psl.0.1.UPF 
    F   18.99800  F.revpbe-n-kjpaw_psl.0.1.UPF 
    O   15.99940  O.revpbe-n-kjpaw_psl.0.1.UPF 
    H   1.008000  H.revpbe-kjpaw_psl.0.1.UPF
ATOMIC_POSITIONS (crystal)
C       -0.010127114   0.016388921  -0.002769146
C        0.236905623   0.009101657   0.005356598
C        0.489041296   0.016227313   0.007377044
C        0.738522053   0.019015525  -0.003806698
C       -0.007968690   0.267842031   0.001484979
C        0.073459170   0.184540308   0.003060510
C        0.242339890   0.265588349   0.004701696
C        0.319728134   0.174736490   0.005695079
C        0.482376527   0.262833183   0.005512383
C        0.570942237   0.182874593   0.003954976
C        0.735274084   0.264510497   0.006188303
C        0.821595699   0.185812839  -0.000530802
C       -0.007599923   0.516860838   0.005849784
C        0.078972062   0.434358600   0.004088806
C        0.253774529   0.516619003   0.008184824
C        0.336807121   0.426455151   0.004609837
C        0.550317634   0.428806488   0.001194727
C        0.715707644   0.517173079  -0.003131929
C        0.814852325   0.434959020   0.027874942
C       -0.015645020   0.762892050  -0.001842449
C        0.070943743   0.679426125   0.003425289
C        0.238883902   0.761407530   0.008216879
C        0.323965878   0.681112892   0.016952376
C        0.489106197   0.774538834   0.044887342
F        0.612747922   0.709988979  -0.079359641
C        0.754413112   0.778530288  -0.037049078
C        0.816767208   0.683373496  -0.015478059
C        0.068945252   0.928042784  -0.000405845
C        0.321118894   0.929052315   0.008881565
C        0.575520791   0.937970241   0.011305907
C        0.825763995   0.937831659  -0.015675094
O        0.822532608   0.451374061   0.127214450
O        0.548077631   0.723713737   0.098526401
H        0.716065020   0.413017795   0.148722988
K_POINTS automatic 
  20 20 1   0 0 0 

