 &CONTROL
                 calculation = 'bands' ,
                      outdir = './tmp/' ,
                  pseudo_dir = '/home/deleted/pseudo_psl' ,
                      prefix = 'GI_ip' ,
                   verbosity = 'high' ,
               etot_conv_thr = 1.0D-5 ,
               forc_conv_thr = 4.0D-4 ,
                       nstep = 1000 ,
                    dipfield = .true. ,
 /
 &SYSTEM
                       ibrav = 4,
                           A = 9.88 ,
                           C = 15 ,
                         nat = 34,
                        ntyp = 4,
                     ecutwfc = 40.424239707 ,
                     ecutrho = 404.24239707 ,
                 occupations = 'tetrahedra' ,
                     degauss = 0.01 ,
				   input_dft = 'vdW-DF' ,
    nspin = 2 ,
    starting_magnetization(1) = 0.5,
    starting_magnetization(2) = 0.5,
    starting_magnetization(3) = 0.5,
 /
 &ELECTRONS
            electron_maxstep = 50001,
                    conv_thr = 1.0D-6 ,
                 mixing_mode = 'local-TF' ,
                 mixing_beta = 0.5 ,
 /
ATOMIC_SPECIES
    C   12.01100  C.revpbe-n-kjpaw_psl.0.1.UPF 
    I  126.90400  I.revpbe-n-kjpaw_psl.0.2.UPF 
    O   15.99940  O.revpbe-n-kjpaw_psl.0.1.UPF 
    H   1.008000  H.revpbe-kjpaw_psl.0.1.UPF
ATOMIC_POSITIONS (crystal)
C        0.019823766   0.022953589   0.002974582
C        0.272572017   0.030279010   0.006587213
C        0.517979402   0.022948281   0.003391644
C        0.766146637   0.017506320  -0.005984397
C        0.015626749   0.269512894   0.010486387
C        0.101533155   0.190007684   0.003030510
C        0.268319548   0.276676253  -0.008357916
C        0.355018961   0.195351087  -0.006882217
C        0.523085881   0.276723670  -0.008143762
C        0.603269977   0.190018263   0.003129001
C        0.768702446   0.269526066   0.010319580
C        0.848717575   0.182612676   0.007161870
C        0.018618902   0.522411993   0.025353870
C        0.096236750   0.436144340   0.017963169
C        0.258021405   0.521129268   0.002652276
C        0.333198541   0.439699941  -0.017079123
C        0.621126898   0.439706490  -0.016938535
C        0.778100025   0.521186325   0.001790256
C        0.854801170   0.436240520   0.017367127
C        0.025093536   0.776675018   0.017197557
C        0.102628140   0.690461341   0.025276780
C        0.266525730   0.776665808   0.018088702
C        0.343275419   0.691539736   0.003195784
C        0.500392963   0.772944072  -0.015140862
I        0.560477877   0.606635291  -0.060568602
C        0.787898511   0.773206554  -0.016733853
C        0.863316916   0.691667637   0.001849050
C        0.105669748   0.943338261   0.009890900
C        0.352524541   0.943382787   0.010489609
C        0.598178719   0.936231422  -0.007266445
C        0.852889150   0.936191872  -0.007731988
O        0.454413821   0.495358035   0.177812908
O        0.583177382   0.626355295   0.134399140
H        0.475729412   0.525411546   0.240654419
K_POINTS automatic 
  20 20 1   0 0 0 

