 &CONTROL
                 calculation = 'relax' ,
                      outdir = './tmp/' ,
                  pseudo_dir = '/home/deleted/pseudo_psl' ,
                      prefix = 'GBr_op' ,
                   verbosity = 'high' ,
               etot_conv_thr = 1.0D-5 ,
               forc_conv_thr = 4.0D-4 ,
                       nstep = 1000 ,
                    dipfield = .true. ,
 /
 &SYSTEM
                       ibrav = 4,
                           A = 9.88 ,
                           C = 15 ,
                         nat = 34,
                        ntyp = 4,
                     ecutwfc = 40.424239707 ,
                     ecutrho = 404.24239707 ,
                 occupations = 'smearing' ,
                     degauss = 0.01 ,
				   input_dft = 'vdW-DF' ,
    nspin = 2 ,
    starting_magnetization(1) = 0.5,
    starting_magnetization(2) = 0.5,
    starting_magnetization(3) = 0.5,
	starting_magnetization(4) = 0.5,
 /
 &ELECTRONS
            electron_maxstep = 50001,
                    conv_thr = 1.0D-6 ,
                 mixing_mode = 'local-TF' ,
                 mixing_beta = 0.5 ,
 /
 &IONS
                ion_dynamics = 'bfgs' ,
 /
ATOMIC_SPECIES
    C   12.01100  C.revpbe-n-kjpaw_psl.0.1.UPF 
   Br   79.90350  Br.revpbe-n-kjpaw_psl.0.2.UPF 
    O   15.99940  O.revpbe-n-kjpaw_psl.0.1.UPF 
    H   1.008000  H.revpbe-kjpaw_psl.0.1.UPF
ATOMIC_POSITIONS (crystal)
C       -0.001869492  -0.001011901  -0.004338864
C        0.244247922  -0.011504156  -0.004038233
C        0.500857592  -0.001011901  -0.004338864
C        0.756805027   0.013610054  -0.004963767
C        0.006820842   0.255448181  -0.005050865
C        0.084539513   0.166180626  -0.004477417
C        0.251583223   0.243116042  -0.004501848
C        0.325633888   0.151267779  -0.003974771
C        0.491532819   0.243116042  -0.004501848
C        0.581641112   0.166180626  -0.004477417
C        0.748627338   0.255448181  -0.005050865
C        0.838322698   0.176645397  -0.004968041
C        0.000298760   0.500597520  -0.006074656
C        0.095328293   0.420343973  -0.005848978
C        0.273228973   0.498493888  -0.006280302
C        0.352004578   0.405486545  -0.005497872
C        0.553481966   0.405486545  -0.005497872
C        0.725264914   0.498493888  -0.006280302
C        0.825015679   0.420343973  -0.005848978
C       -0.012947180   0.744595908  -0.005664295
C        0.082203832   0.664407664  -0.006042788
C        0.257543090   0.744595908  -0.005664295
C        0.356584694   0.666581665  -0.006193443
C        0.528630126   0.759688649  -0.004093669
Br       0.596824008   0.693648017   0.180287376
C        0.731058522   0.759688649  -0.004093669
C        0.809996970   0.666581665  -0.006193443
C        0.075676822   0.909646000  -0.004463629
C        0.333969177   0.909646000  -0.004463629
C        0.591156011   0.922373130  -0.004628801
C        0.831217118   0.922373130  -0.004628801
O        0.658794918   0.692667171   0.434244407
O        0.533872252   0.692667171   0.434244407
H        0.596333585   0.844487901   0.434630629
K_POINTS automatic 
  4 4 1   0 0 0 

