 &CONTROL
                 calculation = 'scf' ,
                      outdir = './tmp/' ,
                  pseudo_dir = '/home/deleted/pseudo_psl' ,
                      prefix = 'GI_ip' ,
                   verbosity = 'high' ,
               etot_conv_thr = 1.0D-5 ,
               forc_conv_thr = 4.0D-4 ,
                       nstep = 1000 ,
                    dipfield = .true. ,
 /
 &SYSTEM
                       ibrav = 4,
                           A = 9.88 ,
                           C = 15 ,
                         nat = 33,
                        ntyp = 3,
                     ecutwfc = 40.424239707 ,
                     ecutrho = 404.24239707 ,
                 occupations = 'smearing' ,
                     degauss = 0.01 ,
				   input_dft = 'vdW-DF' ,
 /
 &ELECTRONS
            electron_maxstep = 50001,
                    conv_thr = 1.0D-6 ,
                 mixing_mode = 'local-TF' ,
                 mixing_beta = 0.5 ,
 /
ATOMIC_SPECIES
    C   12.01100  C.revpbe-n-kjpaw_psl.0.1.UPF 
    I  126.90400  I.revpbe-n-kjpaw_psl.0.2.UPF 
    O   15.99940  O.revpbe-n-kjpaw_psl.0.1.UPF 
ATOMIC_POSITIONS crystal 
C        0.002119360   0.002451219   0.002624690
C        0.254768653   0.009537307   0.006387908
C        0.500331859   0.002451219   0.002624690
C        0.748697180  -0.002605639  -0.006963650
C       -0.001894040   0.249241131   0.009807268
C        0.083895444   0.169585525   0.002623587
C        0.250813296   0.256064546  -0.008437728
C        0.337325727   0.174651455  -0.006965350
C        0.505251250   0.256064546  -0.008437728
C        0.585690080   0.169585525   0.002623587
C        0.751135170   0.249241131   0.009807268
C        0.831251719   0.162503439   0.006390281
C        0.001026638   0.502053277   0.025118096
C        0.078787068   0.415952467   0.017328728
C        0.240563055   0.500798265   0.001911526
C        0.315914759   0.419243590  -0.017188422
C        0.603328830   0.419243590  -0.017188422
C        0.760235210   0.500798265   0.001911526
C        0.837165397   0.415952467   0.017328728
C        0.007234344   0.756091050   0.017326499
C        0.084995228   0.669990456   0.025114616
C        0.248856706   0.756091050   0.017326499
C        0.325789146   0.671244516   0.001913181
C        0.482697750   0.752791683  -0.017181012
I        0.543006632   0.586013266  -0.063640432
C        0.770093933   0.752791683  -0.017181012
C        0.845455370   0.671244516   0.001913181
C        0.087914696   0.922801877   0.009805673
C        0.334887181   0.922801877   0.009805673
C        0.580770754   0.915970833  -0.008435034
C        0.835200077   0.915970833  -0.008435034
O        0.542999045   0.585998091   0.152485412
O        0.543039411   0.586078823   0.237875208
K_POINTS automatic 
  16 16 1   0 0 0 

