 &CONTROL
                 calculation = 'scf' ,
                      outdir = './tmp/' ,
                  pseudo_dir = '/home/deleted/pseudo_psl' ,
                      prefix = 'B1_opV' ,
                    dipfield = .true. ,
                   verbosity = 'high',
                       nstep = 1000,
               forc_conv_thr = 4.0D-4,
               etot_conv_thr = 1.0D-5
 /
 &SYSTEM
                       ibrav = 4,
                           A = 9.88 ,
                           C = 15 ,
                         nat = 32, 
                        ntyp = 2,
                     ecutwfc = 40.424239707 ,
                     ecutrho = 404.24239707 ,
                 occupations = 'smearing' ,
                     degauss = 0.01 ,
				   input_dft = 'vdW-DF' ,
    nspin = 2 ,
    starting_magnetization(1) = 0.5,
	starting_magnetization(2) = 0.5,
 /
 &ELECTRONS
            electron_maxstep = 50001,
                    conv_thr = 1.0D-6 ,
                 mixing_mode = 'local-TF' ,
                 mixing_beta = 0.5 ,
 /
ATOMIC_SPECIES
    C   12.01100  C.revpbe-n-kjpaw_psl.0.1.UPF
    O   15.99940  O.revpbe-n-kjpaw_psl.0.1.UPF 
ATOMIC_POSITIONS crystal 
C       -0.000829318  -0.003991595   0.000541847
C        0.244037874  -0.011932252  -0.001932646
C        0.496847376  -0.004002488   0.000512813
C        0.751578056   0.003146221   0.006644989
C        0.002133930   0.247952841   0.001066592
C        0.082935579   0.162381456  -0.000634032
C        0.249737042   0.241034174  -0.002432901
C        0.325238762   0.150472467  -0.002993391
C        0.491299847   0.241035208  -0.002450721
C        0.579449041   0.162381563  -0.000662781
C        0.745814942   0.247951065   0.001050992
C        0.833348346   0.166699709   0.002995827
C       -0.002557735   0.494889666   0.000680203
C        0.089214358   0.413085200   0.000702748
C        0.263893447   0.492910655   0.001271084
C        0.345048278   0.402646027  -0.000678467
C        0.557602056   0.402648675  -0.000684519
C        0.729017980   0.492910759   0.001280019
C        0.823866277   0.413084953   0.000700416
C       -0.008280268   0.741206206   0.000207773
C        0.079482674   0.658968985  -0.000355994
C        0.249490498   0.741204120   0.000194525
C        0.339290897   0.661450320   0.003372572
C        0.502872765   0.756052478   0.009623243
O        0.589709243   0.679412927   0.027015813
O        0.572562016   0.645203249   0.131129752
C        0.753197636   0.756060052   0.009650200
C        0.822162314   0.661456071   0.003394732
C        0.076634431   0.907107480  -0.000527695
C        0.330469010   0.907105768  -0.000544272
C        0.584504607   0.918068764   0.005917555
C        0.833561370   0.918065950   0.005943725
K_POINTS automatic 
  16 16 1   0 0 0 

