 &CONTROL
                 calculation = 'bands' ,
                      outdir = './tmp/' ,
                  pseudo_dir = '/home/deleted/pseudo_psl' ,
                      prefix = 'GCl_op' ,
                   verbosity = 'high' ,
               etot_conv_thr = 1.0D-5 ,
               forc_conv_thr = 4.0D-4 ,
                       nstep = 1000 ,
                    dipfield = .true. ,
 /
 &SYSTEM
                       ibrav = 4,
                           A = 9.88 ,
                           C = 15 ,
                         nat = 32,
                        ntyp = 3,
                     ecutwfc = 40.424239707 ,
                     ecutrho = 404.24239707 ,
                 occupations = 'tetrahedra' ,
                     degauss = 0.01 ,
				   input_dft = 'vdW-DF' ,
 /
 &ELECTRONS
            electron_maxstep = 50001,
                    conv_thr = 1.0D-6 ,
                 mixing_mode = 'local-TF' ,
                 mixing_beta = 0.5 ,
 /
ATOMIC_SPECIES
    C   12.01100  C.revpbe-n-kjpaw_psl.0.1.UPF 
   Cl   35.45200  Cl.revpbe-n-kjpaw_psl.0.3.0.UPF 
    O   15.99940  O.revpbe-n-kjpaw_psl.0.1.UPF 
ATOMIC_POSITIONS crystal 
C        0.002793724   0.003630307  -0.005623898
C        0.248472205  -0.003055591  -0.010164927
C        0.500836583   0.003630307  -0.005623898
C        0.754549194   0.009098387   0.005605548
C        0.004636936   0.254789580  -0.005651175
C        0.086524545   0.170124386  -0.008678391
C        0.253980859   0.250014284  -0.011505705
C        0.330060073   0.160120145  -0.012793572
C        0.496033426   0.250014284  -0.011505705
C        0.583599840   0.170124386  -0.008678391
C        0.750152644   0.254789580  -0.005651175
C        0.836880659   0.173761320  -0.002171292
C        0.000957879   0.501915758  -0.004773209
C        0.090890585   0.420222634  -0.005097706
C        0.264552987   0.501341935  -0.003088433
C        0.347090882   0.412250927  -0.008406172
C        0.565160044   0.412250927  -0.008406172
C        0.736788948   0.501341935  -0.003088433
C        0.829332048   0.420222634  -0.005097706
C       -0.002293490   0.749157393  -0.004685571
C        0.083404602   0.666809205  -0.006691654
C        0.251450883   0.749157393  -0.004685571
C        0.337740243   0.668236513   0.003807023
C        0.501264962   0.762461575   0.016437210
Cl       0.590967182   0.681934366   0.084082922
C        0.761196614   0.762461575   0.016437210
C        0.830496270   0.668236513   0.003807023
C        0.081595519   0.915715924  -0.006939698
C        0.334120403   0.915715924  -0.006939698
C        0.587959107   0.925332697   0.005807081
C        0.837373589   0.925332697   0.005807081
O        0.621430052   0.742860104   0.180823716
K_POINTS crystal_b 
4
0.0000000000    0.0000000000    0.0000000000 17
0.0000000000    0.5000000000    0.0000000000 10
0.3333333333    0.3333333333    0.0000000000 20
0.0000000000    0.0000000000    0.0000000000 1

