 &CONTROL
                 calculation = 'scf' ,
                      outdir = './tmp_subs/' ,
                  pseudo_dir = '/home/deleted/pseudo_psl' ,
                      prefix = 'GCl_op-subs' ,
                   verbosity = 'high' ,
               etot_conv_thr = 1.0D-5 ,
               forc_conv_thr = 4.0D-4 ,
                       nstep = 1000 ,
                    dipfield = .true. ,
 /
 &SYSTEM
                       ibrav = 4,
                           A = 9.88 ,
                           C = 15 ,
                         nat = 31,
                        ntyp = 2,
                     ecutwfc = 40.424239707 ,
                     ecutrho = 404.24239707 ,
                 occupations = 'smearing' ,
                     degauss = 0.01 ,
				   input_dft = 'vdW-DF' ,
    nspin = 2 ,
    starting_magnetization(1) = 0.5,
    starting_magnetization(2) = 0.5,
 /
 &ELECTRONS
            electron_maxstep = 50001,
                    conv_thr = 1.0D-6 ,
                 mixing_mode = 'local-TF' ,
                 mixing_beta = 0.5 ,
 /
ATOMIC_SPECIES
    C   12.01100  C.revpbe-n-kjpaw_psl.0.1.UPF 
   Cl   35.45200  Cl.revpbe-n-kjpaw_psl.0.3.0.UPF 
ATOMIC_POSITIONS (crystal)
C        0.005216886   0.007711571  -0.003335068
C        0.250666536   0.001333073  -0.011893469
C        0.502494684   0.007711571  -0.003335068
C        0.756245832   0.012491665   0.015533080
C        0.006133106   0.257990333  -0.003415763
C        0.088462066   0.174069306  -0.007620401
C        0.255680565   0.253920425  -0.012676668
C        0.332267614   0.164535229  -0.014262664
C        0.498239860   0.253920425  -0.012676668
C        0.585607238   0.174069306  -0.007620401
C        0.751857227   0.257990333  -0.003415763
C        0.838129884   0.176259768   0.002761783
C        0.002687111   0.505374222  -0.005187812
C        0.092185125   0.423576840  -0.004751601
C        0.265818497   0.504251577  -0.003022087
C        0.347734732   0.416174918  -0.009441438
C        0.568440184   0.416174918  -0.009441438
C        0.738433080   0.504251577  -0.003022087
C        0.831391714   0.423576840  -0.004751601
C        0.000420995   0.753386131  -0.006415882
C        0.085262592   0.670525185  -0.008858900
C        0.252965135   0.753386131  -0.006415882
C        0.339326847   0.672117693   0.004963306
C        0.497202574   0.768025000   0.025533244
Cl       0.593549317   0.687098637   0.088267494
C        0.770822427   0.768025000   0.025533244
C        0.832790845   0.672117693   0.004963306
C        0.083817845   0.919733413  -0.007839492
C        0.335915566   0.919733413  -0.007839492
C        0.588175270   0.929632819   0.014513170
C        0.841457548   0.929632819   0.014513170
K_POINTS automatic 
  16 16 1   0 0 0 

