 &CONTROL
                 calculation = 'scf' ,
                      outdir = './tmp_subs/' ,
                  pseudo_dir = '/home/deleted/pseudo_psl' ,
                      prefix = 'GI_op_subs' ,
                   verbosity = 'high' ,
               etot_conv_thr = 1.0D-5 ,
               forc_conv_thr = 4.0D-4 ,
                       nstep = 1000 ,
                    dipfield = .true. ,
 /
 &SYSTEM
                       ibrav = 4,
                           A = 9.88 ,
                           C = 15 ,
                         nat = 31,
                        ntyp = 2,
                     ecutwfc = 40.424239707 ,
                     ecutrho = 404.24239707 ,
                 occupations = 'smearing' ,
                     degauss = 0.01 ,
				   input_dft = 'vdW-DF' ,
 /
 &ELECTRONS
            electron_maxstep = 50001,
                    conv_thr = 1.0D-6 ,
                 mixing_mode = 'local-TF' ,
                 mixing_beta = 0.5 ,
 /
ATOMIC_SPECIES
    C   12.01100  C.revpbe-n-kjpaw_psl.0.1.UPF 
    I  126.90400  I.revpbe-n-kjpaw_psl.0.2.UPF 
ATOMIC_POSITIONS crystal 
C       -0.001744092  -0.013340020  -0.002016252
C        0.244596522  -0.023633597  -0.002235674
C        0.500970588  -0.013334129  -0.003965530
C        0.757092583   0.001804327  -0.003851372
C        0.007061954   0.243235399  -0.001636539
C        0.084556959   0.153893631  -0.001392818
C        0.251484705   0.230605013  -0.000974182
C        0.325724506   0.138716772  -0.001454784
C        0.491729476   0.230499742  -0.001628081
C        0.581921579   0.153781085  -0.002590299
C        0.748712506   0.243164613  -0.002249674
C        0.838422243   0.164275830  -0.002784119
C        0.000691493   0.488665558  -0.001652474
C        0.095559199   0.408086147  -0.001410649
C        0.273002150   0.486006877  -0.001832275
C        0.351084523   0.392808601  -0.001174092
C        0.554326949   0.392729338  -0.001386938
C        0.725527164   0.485863902  -0.001631181
C        0.825156880   0.408013081  -0.001552701
C       -0.012741068   0.732542562  -0.002366818
C        0.082436017   0.652021444  -0.002453570
C        0.257851689   0.732476725  -0.003334921
C        0.357212622   0.654720730  -0.003463680
C        0.528659743   0.747852626  -0.004118807
I        0.562958790   0.801596869   0.230320543
C        0.731712073   0.747913137  -0.003019692
C        0.809991074   0.654735373  -0.002284167
C        0.075674708   0.897372341  -0.002123138
C        0.334326089   0.897384158  -0.003450862
C        0.591277879   0.910101487  -0.004959914
C        0.831277621   0.909969952  -0.003124992
K_POINTS automatic 
  16 16 1   0 0 0 

