&PROJWFC
  outdir = './tmp',
  prefix = 'HOOH',
  filpdos = 'HOOH-pdos',
  ngauss = 1,
  degauss = 0.01,
  DeltaE = 0.01,
  lsym = .true.
/
