 &CONTROL
                 calculation = 'bands' ,
                      outdir = './tmp/' ,
                  pseudo_dir = '/home/deleted/pseudo_psl' ,
                      prefix = 'GCl_op' ,
                   verbosity = 'high' ,
               etot_conv_thr = 1.0D-5 ,
               forc_conv_thr = 4.0D-4 ,
                       nstep = 1000 ,
                    dipfield = .true. ,
 /
 &SYSTEM
                       ibrav = 4,
                           A = 9.88 ,
                           C = 15 ,
                         nat = 32,
                        ntyp = 3,
                     ecutwfc = 40.424239707 ,
                     ecutrho = 404.24239707 ,
                 occupations = 'tetrahedra' ,
                     degauss = 0.01 ,
				   input_dft = 'vdW-DF' ,
 /
 &ELECTRONS
            electron_maxstep = 50001,
                    conv_thr = 1.0D-6 ,
                 mixing_mode = 'local-TF' ,
                 mixing_beta = 0.5 ,
 /
ATOMIC_SPECIES
    C   12.01100  C.revpbe-n-kjpaw_psl.0.1.UPF 
   Cl   35.45200  Cl.revpbe-n-kjpaw_psl.0.3.0.UPF 
    O   15.99940  O.revpbe-n-kjpaw_psl.0.1.UPF 
ATOMIC_POSITIONS crystal 
C       -0.001766629  -0.000823839  -0.011186589
C        0.244472164  -0.011055671  -0.011122307
C        0.500942790  -0.000823839  -0.011186589
C        0.757166773   0.014333546  -0.011252699
C        0.007194760   0.255766691  -0.011211221
C        0.084539653   0.166376170  -0.011092964
C        0.251502703   0.243138958  -0.011174123
C        0.325619979   0.151239959  -0.011016142
C        0.491636254   0.243138958  -0.011174123
C        0.581836516   0.166376170  -0.011092964
C        0.748571931   0.255766691  -0.011211221
C        0.838316876   0.176633753  -0.011134396
C        0.000578272   0.501156546  -0.011694021
C        0.095616814   0.420556004  -0.011557190
C        0.273007477   0.498356772  -0.011819579
C        0.351043155   0.405196825  -0.011623146
C        0.554153669   0.405196825  -0.011623146
C        0.725349295   0.498356772  -0.011819579
C        0.824939189   0.420556004  -0.011557190
C       -0.012832574   0.745001605  -0.011720779
C        0.082204438   0.664408877  -0.011773581
C        0.257834179   0.745001605  -0.011720779
C        0.357417881   0.667205011  -0.011954577
C        0.528610656   0.760369819  -0.011863029
Cl       0.543262783   0.586525568   0.201504075
C        0.731759163   0.760369819  -0.011863029
C        0.809787129   0.667205011  -0.011954577
C        0.075590497   0.909794405  -0.011314300
C        0.334203908   0.909794405  -0.011314300
C        0.591145852   0.922428074  -0.011427334
C        0.831282221   0.922428074  -0.011427334
O        0.548345553   0.596691105   0.309045397
K_POINTS crystal_b 
4
0.0000000000    0.0000000000    0.0000000000 17
0.0000000000    0.5000000000    0.0000000000 10
0.3333333333    0.3333333333    0.0000000000 20
0.0000000000    0.0000000000    0.0000000000 1

