 &CONTROL
                 calculation = 'bands' ,
                      outdir = './tmp/' ,
                  pseudo_dir = '/home/deleted/pseudo_psl' ,
                      prefix = 'GF_ip' ,
                   verbosity = 'high' ,
               etot_conv_thr = 1.0D-5 ,
               forc_conv_thr = 4.0D-4 ,
                       nstep = 1000 ,
                    dipfield = .true. ,
 /
 &SYSTEM
                       ibrav = 4,
                           A = 9.88 ,
                           C = 15 ,
                         nat = 33,
                        ntyp = 3,
                     ecutwfc = 40.424239707 ,
                     ecutrho = 404.24239707 ,
                 occupations = 'tetrahedra' ,
                     degauss = 0.01 ,
				   input_dft = 'vdW-DF' ,
    nspin = 2 ,
    starting_magnetization(1) = 0.5,
    starting_magnetization(2) = 0.5,
    starting_magnetization(3) = -0.60,
 /
 &ELECTRONS
            electron_maxstep = 50001,
                    conv_thr = 1.0D-6 ,
                 mixing_mode = 'local-TF' ,
                 mixing_beta = 0.5 ,
 /
ATOMIC_SPECIES
    C   12.01100  C.revpbe-n-kjpaw_psl.0.1.UPF 
    F   18.99800  F.revpbe-n-kjpaw_psl.0.1.UPF 
    O   15.99940  O.revpbe-n-kjpaw_psl.0.1.UPF 
ATOMIC_POSITIONS (crystal)
C       -0.002662076  -0.009297080   0.002366589
C        0.241227048  -0.017545904   0.005563482
C        0.493364996  -0.009297080   0.002366589
C        0.748233319  -0.003533363  -0.004722836
C       -0.001556104   0.241449729   0.001257337
C        0.080464095   0.156959441   0.003162379
C        0.247304872   0.235396232   0.004556103
C        0.322615947   0.145231894   0.005736952
C        0.488091360   0.235396232   0.004556103
C        0.576495345   0.156959441   0.003162379
C        0.743005832   0.241449729   0.001257337
C        0.830296879   0.160593758  -0.000795726
C       -0.006031430   0.487937141   0.001785093
C        0.085008141   0.406692765   0.001558679
C        0.259538240   0.485911797   0.001040155
C        0.342471874   0.397475714   0.002599229
C        0.555003839   0.397475714   0.002599229
C        0.726373556   0.485911797   0.001040155
C        0.821684622   0.406692765   0.001558679
C       -0.009096733   0.735402741   0.003089241
C        0.076476449   0.652952900   0.003420865
C        0.244499473   0.735402741   0.003089241
C        0.332754319   0.653745056  -0.000638430
C        0.491739956   0.753366142  -0.005594865
F        0.585774913   0.671549827  -0.027787870
C        0.761626185   0.753366142  -0.005594865
C        0.820990736   0.653745056  -0.000638430
C        0.074545188   0.901481637   0.004153860
C        0.326936447   0.901481637   0.004153860
C        0.581828945   0.913104062  -0.003779769
C        0.831275116   0.913104062  -0.003779769
O        0.614158254   0.728316508   0.174863868
O        0.548893720   0.597787440   0.214395157
K_POINTS automatic 
  20 20 1   0 0 0 

