 &CONTROL
                 calculation = 'scf' ,
                      outdir = './tmp/' ,
                  pseudo_dir = '/home/deleted/pseudo_psl' ,
                      prefix = 'GI_op' ,
                   verbosity = 'high' ,
               etot_conv_thr = 1.0D-5 ,
               forc_conv_thr = 4.0D-4 ,
                       nstep = 1000 ,
                    dipfield = .true. ,
 /
 &SYSTEM
                       ibrav = 4,
                           A = 9.88 ,
                           C = 15 ,
                         nat = 34,
                        ntyp = 4,
                     ecutwfc = 40.424239707 ,
                     ecutrho = 404.24239707 ,
                 occupations = 'smearing' ,
                     degauss = 0.01 ,
				   input_dft = 'vdW-DF' ,
    nspin = 2 ,
    starting_magnetization(1) = 0.5,
    starting_magnetization(2) = 0.5,
    starting_magnetization(3) = 0.5,
 /
 &ELECTRONS
            electron_maxstep = 50001,
                    conv_thr = 1.0D-6 ,
                 mixing_mode = 'local-TF' ,
                 mixing_beta = 0.5 ,
 /
ATOMIC_SPECIES
    C   12.01100  C.revpbe-n-kjpaw_psl.0.1.UPF 
    I  126.90400  I.revpbe-n-kjpaw_psl.0.2.UPF 
    O   15.99940  O.revpbe-n-kjpaw_psl.0.1.UPF 
    H   1.008000  H.revpbe-kjpaw_psl.0.1.UPF
ATOMIC_POSITIONS (crystal)
C       -0.002687677  -0.001234091   0.000664865
C        0.243511472  -0.011593734   0.001573578
C        0.500145595  -0.001188498   0.001066788
C        0.756185403   0.013682850  -0.000091043
C        0.006072431   0.255215917   0.000453958
C        0.083563368   0.165863744   0.000990326
C        0.250566373   0.242705005   0.001229769
C        0.324881453   0.151139359   0.001714067
C        0.490766455   0.242729140   0.001474094
C        0.580971313   0.165933965   0.001345208
C        0.747834869   0.255242894   0.000644578
C        0.837486979   0.176296483   0.000372380
C       -0.000413739   0.500486040  -0.000448801
C        0.094571221   0.420116458  -0.000240362
C        0.272062600   0.498112458  -0.000738392
C        0.350338536   0.405050881   0.000481766
C        0.553338272   0.405089956   0.000661254
C        0.724738910   0.498129485  -0.000740290
C        0.824237117   0.420155078  -0.000203968
C       -0.013547692   0.744578773  -0.000174474
C        0.081445637   0.664232163  -0.000338883
C        0.256800848   0.744604444  -0.000072939
C        0.356496686   0.666608899  -0.000791802
C        0.527857929   0.759672047  -0.000356063
I        0.513868123   0.520228425   0.222435079
C        0.730543973   0.759673132  -0.000561916
C        0.808797603   0.666594165  -0.000932587
C        0.074858841   0.909453805   0.000870285
C        0.333247515   0.909480802   0.001065439
C        0.590325326   0.921997209   0.000116454
C        0.830344957   0.921940206  -0.000182229
O        0.821482606   0.992082185   0.206116533
O        0.666948672   0.920767132   0.223505072
H        0.629958777   0.804416723   0.227240375
K_POINTS automatic 
  16 16 1   0 0 0 

