&INPUTPP
	outdir = './tmp_ads/'
	prefix = 'GCl_op_ads'
	filplot = 'GCl_chg_ads'
	plot_num = 0,
	spin_component = 0
/
&PLOT
	nfile = 1
	filepp(1) = 'GCl_chg_ads'
	weight(1) = 1.0,
	fileout = 'GCl_chg_ads.xsf'
	iflag = 3
	output_format = 5
/
