 &CONTROL
                 calculation = 'relax' ,
                      outdir = './tmp/' ,
                  pseudo_dir = '/home/deleted/pseudo_psl' ,
                      prefix = 'GCl_op' ,
                   verbosity = 'high' ,
               etot_conv_thr = 1.0D-5 ,
               forc_conv_thr = 4.0D-4 ,
                       nstep = 1000 ,
                    dipfield = .true. ,
 /
 &SYSTEM
                       ibrav = 4,
                           A = 9.88 ,
                           C = 15 ,
                         nat = 33,
                        ntyp = 3,
                     ecutwfc = 40.424239707 ,
                     ecutrho = 404.24239707 ,
                 occupations = 'smearing' ,
                     degauss = 0.01 ,
				   input_dft = 'vdW-DF' ,
 /
 &ELECTRONS
            electron_maxstep = 50001,
                    conv_thr = 1.0D-6 ,
                 mixing_mode = 'local-TF' ,
                 mixing_beta = 0.5 ,
 /
 &IONS
                ion_dynamics = 'bfgs' ,
 /
ATOMIC_SPECIES
    C   12.01100  C.revpbe-n-kjpaw_psl.0.1.UPF 
   Cl   35.45200  Cl.revpbe-n-kjpaw_psl.0.3.0.UPF 
    O   15.99940  O.revpbe-n-kjpaw_psl.0.1.UPF 
ATOMIC_POSITIONS crystal 
C       -0.021596487   0.001138928  -0.003543572
C        0.222487988  -0.007816863  -0.002670402
C        0.475749380   0.000984150  -0.001153592
C        0.730876232   0.008374042  -0.002034866
C       -0.018617404   0.253325880  -0.002087271
C        0.062225505   0.167431109  -0.002619949
C        0.228837841   0.245596106  -0.002404686
C        0.303934775   0.154948056  -0.001996631
C        0.469750558   0.245563720  -0.001456281
C        0.558189599   0.167381043  -0.001111173
C        0.724966091   0.253293365  -0.001408032
C        0.812934356   0.172743003  -0.001668841
C       -0.023539727   0.499960025  -0.002688092
C        0.068720808   0.418549894  -0.002244103
C        0.244502993   0.498496406  -0.002429517
C        0.326149704   0.407606513  -0.002433714
C        0.534622216   0.407616218  -0.002243235
C        0.707067409   0.498559376  -0.003101473
C        0.802758833   0.418458641  -0.002292798
C       -0.029669056   0.746072893  -0.004359154
C        0.058680252   0.664584168  -0.003445126
C        0.228678130   0.746098032  -0.002484237
C        0.319054817   0.666656391  -0.002287055
C        0.484693472   0.760237749  -0.002212436
Cl       0.815890216   0.753078557   0.226588086
C        0.728886596   0.760213462  -0.004079913
C        0.800746182   0.666667756  -0.004631287
C        0.055696367   0.912014451  -0.004011093
C        0.309252808   0.911908911  -0.001946934
C        0.563912660   0.923447819  -0.001490359
C        0.812877207   0.923613543  -0.003347736
O        0.991797153   0.807630224   0.190045714
O        0.568709099   0.684035428  -0.003900346
K_POINTS automatic 
  4 4 1   0 0 0 

