 &CONTROL
                 calculation = 'relax' ,
                      outdir = './tmp/' ,
                  pseudo_dir = '/home/deleted/pseudo_psl' ,
                      prefix = 'GI_op' ,
                   verbosity = 'high' ,
               etot_conv_thr = 1.0D-5 ,
               forc_conv_thr = 4.0D-4 ,
                       nstep = 1000 ,
                    dipfield = .true. ,
 /
 &SYSTEM
                       ibrav = 4,
                           A = 9.88 ,
                           C = 15 ,
                         nat = 34,
                        ntyp = 4,
                     ecutwfc = 40.424239707 ,
                     ecutrho = 404.24239707 ,
                 occupations = 'smearing' ,
                     degauss = 0.01 ,
				   input_dft = 'vdW-DF' ,
    nspin = 2 ,
    starting_magnetization(1) = 0.5,
    starting_magnetization(2) = 0.5,
    starting_magnetization(3) = 0.5,
	starting_magnetization(4) = 0.5,
 /
 &ELECTRONS
            electron_maxstep = 50001,
                    conv_thr = 1.0D-6 ,
                 mixing_mode = 'local-TF' ,
                 mixing_beta = 0.5 ,
 /
 &IONS
                ion_dynamics = 'bfgs' ,
 /
ATOMIC_SPECIES
    C   12.01100  C.revpbe-n-kjpaw_psl.0.1.UPF 
    I  126.90400  I.revpbe-n-kjpaw_psl.0.2.UPF 
    O   15.99940  O.revpbe-n-kjpaw_psl.0.1.UPF 
    H   1.008000  H.revpbe-kjpaw_psl.0.1.UPF
ATOMIC_POSITIONS (crystal)
C        0.003826990  -0.004598659  -0.002023272
C        0.250091942  -0.014923047  -0.002912649
C        0.506652228  -0.004591867  -0.003291397
C        0.762712540   0.010389810  -0.002101342
C        0.012726503   0.251962341  -0.002168714
C        0.090179793   0.162603925  -0.002080287
C        0.257137625   0.239324094  -0.002658962
C        0.331418782   0.147783025  -0.003053071
C        0.497254927   0.239314449  -0.003090657
C        0.587480788   0.162592129  -0.002943091
C        0.754297327   0.251971508  -0.002631748
C        0.844004935   0.172980965  -0.002053476
C        0.006193110   0.497289142  -0.003316711
C        0.101271474   0.416906967  -0.003111890
C        0.278498869   0.494823587  -0.003740411
C        0.356941995   0.401710695  -0.002652257
C        0.559849516   0.401698232  -0.002880634
C        0.731416339   0.494841789  -0.003891947
C        0.830726432   0.416931829  -0.003292107
C       -0.007079826   0.741253924  -0.003191345
C        0.087991059   0.660878449  -0.003402038
C        0.263413873   0.741271553  -0.003530225
C        0.363056585   0.663275371  -0.003852367
C        0.534527579   0.756283880  -0.003324600
I        0.500014957   0.484342699   0.212850044
C        0.736791570   0.756277283  -0.002827916
C        0.815289461   0.663275573  -0.003618817
C        0.081419662   0.906118019  -0.002571507
C        0.339822115   0.906142515  -0.003346941
C        0.596782834   0.918566148  -0.002968018
C        0.836823031   0.918551830  -0.002064367
O        0.425138058   0.911761722   0.219811795
O        0.554196164   0.920169949   0.220931477
H        0.488524299   0.91329323    0.320353307
K_POINTS automatic 
  4 4 1   0 0 0 

