 &CONTROL
                 calculation = 'scf' ,
                      outdir = './tmp/' ,
                  pseudo_dir = '/home/deleted/pseudo_psl' ,
                      prefix = 'GI_op' ,
                   verbosity = 'high' ,
               etot_conv_thr = 1.0D-5 ,
               forc_conv_thr = 4.0D-4 ,
                       nstep = 1000 ,
                    dipfield = .true. ,
 /
 &SYSTEM
                       ibrav = 4,
                           A = 9.88 ,
                           C = 15 ,
                         nat = 34,
                        ntyp = 4,
                     ecutwfc = 40.424239707 ,
                     ecutrho = 404.24239707 ,
                 occupations = 'smearing' ,
                     degauss = 0.01 ,
				   input_dft = 'vdW-DF' ,
    nspin = 2 ,
    starting_magnetization(1) = 0.5,
    starting_magnetization(2) = 0.5,
    starting_magnetization(3) = 0.5,
 /
 &ELECTRONS
            electron_maxstep = 50001,
                    conv_thr = 1.0D-6 ,
                 mixing_mode = 'local-TF' ,
                 mixing_beta = 0.5 ,
 /
ATOMIC_SPECIES
    C   12.01100  C.revpbe-n-kjpaw_psl.0.1.UPF 
    I  126.90400  I.revpbe-n-kjpaw_psl.0.2.UPF 
    O   15.99940  O.revpbe-n-kjpaw_psl.0.1.UPF 
    H   1.008000  H.revpbe-kjpaw_psl.0.1.UPF
ATOMIC_POSITIONS (crystal)
C        0.004029148  -0.004198640  -0.004547483
C        0.250311634  -0.014506521  -0.005554731
C        0.506859421  -0.004192373  -0.006191148
C        0.762898736   0.010754415  -0.004842222
C        0.012928588   0.252346605  -0.004526400
C        0.090401295   0.163001712  -0.004425571
C        0.257351043   0.239728056  -0.004843537
C        0.331662921   0.148207797  -0.005324210
C        0.497485123   0.239729729  -0.005302114
C        0.587700964   0.162996087  -0.005385643
C        0.754511513   0.252343309  -0.004987037
C        0.844217160   0.173354782  -0.004536389
C        0.006395775   0.497675377  -0.005780474
C        0.101473588   0.417304117  -0.005476693
C        0.278694138   0.495225837  -0.006182122
C        0.357155312   0.402118778  -0.004885582
C        0.560081987   0.402115987  -0.005059769
C        0.731644258   0.495236889  -0.006256949
C        0.830937878   0.417311355  -0.005612623
C       -0.006860261   0.741665663  -0.005954767
C        0.088208762   0.661293220  -0.006136436
C        0.263628698   0.741677833  -0.006441430
C        0.363272361   0.663672803  -0.006672436
C        0.534752083   0.756672384  -0.006291655
I        0.499999680   0.484549057   0.210157929
C        0.736977406   0.756651695  -0.005629664
C        0.815498855   0.663664511  -0.006306406
C        0.081639768   0.906532296  -0.005249907
C        0.340028322   0.906562543  -0.006273248
C        0.596973428   0.918949459  -0.005985645
C        0.837010345   0.918913335  -0.004738730
O        0.424085055   0.913214527   0.213147476
O        0.551370571   0.917556829   0.213263913
H        0.486067982   0.902343605   0.414185562
K_POINTS automatic 
  16 16 1   0 0 0 

