 &CONTROL
                 calculation = 'scf' ,
                      outdir = './tmp/' ,
                  pseudo_dir = '/home/deleted/pseudo_psl' ,
                      prefix = 'MVG_tlh' ,
                    dipfield = .true. ,
                   verbosity = 'high',
                       nstep = 1000,
               forc_conv_thr = 4.0D-4,
               etot_conv_thr = 1.0D-5
 /
 &SYSTEM
                       ibrav = 4,
                           A = 9.88 ,
                           C = 15 ,
                         nat = 33,
                        ntyp = 2,
                     ecutwfc = 40.424239707 ,
                     ecutrho = 404.24239707 ,
                 occupations = 'smearing' ,
                     degauss = 0.01 ,
				   input_dft = 'vdW-DF' ,
    nspin = 2 ,
    starting_magnetization(1) = 0.5,
	starting_magnetization(2) = 0.5,
 /
 &ELECTRONS
            electron_maxstep = 50001,
                    conv_thr = 1.0D-6 ,
                 mixing_mode = 'local-TF' ,
                 mixing_beta = 0.5 ,
 /
ATOMIC_SPECIES
    C   12.01100  C.revpbe-n-kjpaw_psl.0.1.UPF 
    O   15.99940  O.revpbe-n-kjpaw_psl.0.1.UPF 
ATOMIC_POSITIONS crystal 
C       -0.002598283   0.002641173  -0.016577876
C        0.246876805   0.003031599  -0.013163142
C        0.496401717   0.003588346  -0.006320970
C        0.747864096   0.003516420  -0.005108823
C       -0.003510510   0.252131075  -0.005174823
C        0.079558343   0.168186422  -0.009700152
C        0.243668292   0.247255859   0.001973560
C        0.329066602   0.169350117  -0.007846554
C        0.498255845   0.257202836  -0.009555728
C        0.580358863   0.171197001  -0.008361015
C        0.746302504   0.253623160  -0.008149184
C        0.830498048   0.169483247  -0.007541405
C       -0.003628893   0.503515135  -0.006841557
C        0.080821296   0.421005532  -0.000217987
C        0.243328467   0.503033102   0.016966724
C        0.302747739   0.398177094   0.050219834
C        0.579149727   0.420793522  -0.015281807
C        0.742775501   0.501721750  -0.010024776
C        0.828743584   0.419564135  -0.008857788
C       -0.003030666   0.753119995  -0.013501438
C        0.080756904   0.669629811  -0.009074277
C        0.247392815   0.752526841  -0.003757314
C        0.330654915   0.669321432   0.012762614
C        0.496949657   0.756643652   0.016993191
C        0.601915395   0.697195739   0.050006702
C        0.752759115   0.756331606   0.001644654
C        0.830627536   0.670931077  -0.008341368
C        0.080395332   0.919617384  -0.015370605
C        0.330289204   0.919180806  -0.008719785
C        0.578986031   0.919196150   0.000016026
C        0.831834056   0.920482238  -0.009807484
O        0.595974823   0.655656955   0.128256564
O        0.344481802   0.404482122   0.128455987
K_POINTS automatic 
  16 16 1   0 0 0 

