 &CONTROL
                 calculation = 'scf' ,
                      outdir = './tmp_subs/' ,
                  pseudo_dir = '/home/deleted/pseudo_psl' ,
                      prefix = 'GCl_ip-subs' ,
                   verbosity = 'high' ,
               etot_conv_thr = 1.0D-5 ,
               forc_conv_thr = 4.0D-4 ,
                       nstep = 1000 ,
                    dipfield = .true. ,
 /
 &SYSTEM
                       ibrav = 4,
                           A = 9.88 ,
                           C = 15 ,
                         nat = 31,
                        ntyp = 2,
                     ecutwfc = 40.424239707 ,
                     ecutrho = 404.24239707 ,
                 occupations = 'smearing' ,
                     degauss = 0.01 ,
				   input_dft = 'vdW-DF' ,
    nspin = 2 ,
    starting_magnetization(1) = 0.5,
    starting_magnetization(2) = 0.5,
 /
 &ELECTRONS
            electron_maxstep = 50001,
                    conv_thr = 1.0D-6 ,
                 mixing_mode = 'local-TF' ,
                 mixing_beta = 0.5 ,
 /
ATOMIC_SPECIES
    C   12.01100  C.revpbe-n-kjpaw_psl.0.1.UPF 
   Cl   35.45200  Cl.revpbe-n-kjpaw_psl.0.3.0.UPF 
ATOMIC_POSITIONS (crystal)
C        0.001671216   0.002502499  -0.000068138
C        0.254095632   0.008538702  -0.000136094
C        0.500504748   0.002435930  -0.001071938
C        0.748528066  -0.002607942  -0.001153280
C       -0.001456262   0.249946535  -0.000718777
C        0.084185301   0.169790691  -0.001216699
C        0.252572201   0.257444169  -0.002535417
C        0.337231730   0.174810022  -0.001293659
C        0.504542122   0.257334934  -0.000560037
C        0.585326801   0.169700262  -0.000031652
C        0.751133397   0.249902707   0.000790216
C        0.831721989   0.163669307  -0.000103143
C        0.000930433   0.502161545   0.001266119
C        0.079177969   0.416487573  -0.001052453
C        0.243434440   0.501411376  -0.004101984
C        0.323542374   0.421831131  -0.005172560
C        0.597855953   0.421764238  -0.000061678
C        0.757480862   0.501323945   0.002004685
C        0.836959102   0.416421989   0.002111527
C        0.006616069   0.755801961   0.002104685
C        0.084912711   0.670133390   0.001245652
C        0.248843842   0.755786403  -0.001011756
C        0.328154621   0.670827936  -0.003990537
C        0.487844184   0.750386834  -0.004898314
Cl       0.542860571   0.586082336  -0.004302559
C        0.762168276   0.750392263   0.000063691
C        0.842234396   0.670823273   0.002032803
C        0.087264706   0.922310471   0.000757066
C        0.334689946   0.922307207  -0.000640824
C        0.581230507   0.914776101  -0.002306114
C        0.833258425   0.914832943  -0.000463281
K_POINTS automatic 
  16 16 1   0 0 0 

