&INPUTPP
	outdir = './tmp_subs/'
	prefix = 'GI_op_subs'
	filplot = 'GI_chg_subs'
	plot_num = 0,
	spin_component = 0
/
&PLOT
	nfile = 1
	filepp(1) = 'GI_chg_subs'
	weight(1) = 1.0,
	fileout = 'GI_chg_subs.xsf'
	iflag = 3
	output_format = 5
/
