&INPUTPP
          outdir = './tmp/'
          prefix = 'PG_op'
          filplot = 'PG_op-dens'
          plot_num = 0,
          spin_component = 0
/
&PLOT
          nfile = 1
          filepp(1) = 'PG_op-dens'
          weight(1) = 1.0,
          fileout = 'PG_op-dens.xsf'
          iflag = 3
          output_format = 5
/
