 &CONTROL
                 calculation = 'nscf' ,
                      outdir = './tmp/' ,
                  pseudo_dir = '/home/deleted/pseudo_psl' ,
                      prefix = 'GBr_ip' ,
                   verbosity = 'high' ,
               etot_conv_thr = 1.0D-5 ,
               forc_conv_thr = 4.0D-4 ,
                       nstep = 1000 ,
                    dipfield = .true. ,
 /
 &SYSTEM
                       ibrav = 4,
                           A = 9.88 ,
                           C = 15 ,
                         nat = 32,
                        ntyp = 3,
                     ecutwfc = 40.424239707 ,
                     ecutrho = 404.24239707 ,
                 occupations = 'tetrahedra' ,
                     degauss = 0.01 ,
				   input_dft = 'vdW-DF' ,
    nspin = 2 ,
    starting_magnetization(1) = 0.5,
    starting_magnetization(2) = 0.5,
    starting_magnetization(3) = 0.5,
 /
 &ELECTRONS
            electron_maxstep = 50001,
                    conv_thr = 1.0D-6 ,
                 mixing_mode = 'local-TF' ,
                 mixing_beta = 0.5 ,
 /
ATOMIC_SPECIES
    C   12.01100  C.revpbe-n-kjpaw_psl.0.1.UPF 
   Br   79.90350  Br.revpbe-n-kjpaw_psl.0.2.UPF 
    O   15.99940  O.revpbe-n-kjpaw_psl.0.1.UPF 
ATOMIC_POSITIONS (crystal)
C        0.001455154   0.009427102   0.004007844
C        0.250524236   0.010560175   0.003450388
C        0.496656609   0.003838970  -0.004251998
C        0.746430730   0.003015632  -0.010197738
C       -0.004933512   0.254615193  -0.002343589
C        0.082511219   0.175593013  -0.002183509
C        0.249864588   0.261546028  -0.008961670
C        0.334672042   0.177628540   0.004876848
C        0.498466518   0.253278612   0.020088270
C        0.580016795   0.170026266   0.007939244
C        0.746639563   0.253189943   0.008390337
C        0.827638260   0.169135776  -0.000960991
C       -0.005374242   0.505532789   0.005767941
C        0.074187399   0.420358125  -0.003212726
C        0.237242088   0.502527209  -0.018958543
C        0.315069763   0.420729506  -0.031042446
C        0.587422256   0.413582456   0.058738372
C        0.750351010   0.505757017   0.026828401
C        0.829386423   0.421115164   0.013321014
C        0.002092493   0.759139268   0.013626656
C        0.080309300   0.672762766   0.008055520
C        0.244593244   0.757085434  -0.002404310
C        0.322240109   0.671884202  -0.018334002
C        0.482640935   0.754778181  -0.025792315
Br       0.558885430   0.611789700  -0.058841621
C        0.767507365   0.762734053  -0.006096819
C        0.835867976   0.674137774   0.017099910
C        0.083966388   0.926008830   0.006397099
C        0.330917656   0.923766413  -0.000202113
C        0.579126545   0.918437303  -0.015404210
C        0.835002988   0.924356830  -0.004291333
O        0.528622665   0.461661729   0.114892084
K_POINTS automatic 
  20 20 1   0 0 0 

