 &CONTROL
                 calculation = 'bands' ,
                      outdir = './tmp/' ,
                  pseudo_dir = '/home/deleted/pseudo_psl' ,
                      prefix = 'GBr_op' ,
                   verbosity = 'high' ,
               etot_conv_thr = 1.0D-5 ,
               forc_conv_thr = 4.0D-4 ,
                       nstep = 1000 ,
                    dipfield = .true. ,
 /
 &SYSTEM
                       ibrav = 4,
                           A = 9.88 ,
                           C = 15 ,
                         nat = 34,
                        ntyp = 4,
                     ecutwfc = 40.424239707 ,
                     ecutrho = 404.24239707 ,
                 occupations = 'tetrahedra' ,
                     degauss = 0.01 ,
				   input_dft = 'vdW-DF' ,
    nspin = 2 ,
    starting_magnetization(1) = 0.5,
    starting_magnetization(2) = 0.5,
    starting_magnetization(3) = 0.5,
 /
 &ELECTRONS
            electron_maxstep = 50001,
                    conv_thr = 1.0D-6 ,
                 mixing_mode = 'local-TF' ,
                 mixing_beta = 0.5 ,
 /
ATOMIC_SPECIES
    C   12.01100  C.revpbe-n-kjpaw_psl.0.1.UPF 
   Br   79.90350  Br.revpbe-n-kjpaw_psl.0.2.UPF 
    O   15.99940  O.revpbe-n-kjpaw_psl.0.1.UPF 
    H   1.008000  H.revpbe-kjpaw_psl.0.1.UPF
ATOMIC_POSITIONS (crystal)
C        0.005151046   0.009956981  -0.010188940
C        0.250252807   0.001953523  -0.009161646
C        0.505082190   0.010613382  -0.007302261
C        0.757612733   0.017530440  -0.011158221
C        0.007724556   0.262052195  -0.013738505
C        0.088795549   0.176084045  -0.012579279
C        0.254842974   0.253600033  -0.013293572
C        0.331571452   0.165023791  -0.011807303
C        0.497778411   0.255458023  -0.011792520
C        0.586110894   0.176722217  -0.011641999
C        0.752655012   0.262390550  -0.012814666
C        0.840089369   0.182425008  -0.013750601
C        0.002743846   0.508768831  -0.009563700
C        0.094312772   0.426839122  -0.011389120
C        0.267798273   0.503759721  -0.007936204
C        0.349066072   0.416493815  -0.011731693
C        0.564933819   0.416905921  -0.011340484
C        0.736122097   0.508363622  -0.011502803
C        0.831469319   0.428437885  -0.011667718
C       -0.002172998   0.755925977  -0.009124997
C        0.085337333   0.674549548  -0.006727390
C        0.252455012   0.756580822  -0.001828467
C        0.342856565   0.673053415   0.009296544
C        0.515938797   0.768791843   0.010857773
Br       0.547182382   0.497534267   0.237553246
C        0.756882034   0.769546834  -0.011368466
C        0.828728235   0.676447378  -0.011012932
C        0.083409663   0.921709546  -0.009247856
C        0.335602380   0.920412309  -0.005209683
C        0.594253121   0.936587786  -0.005426905
C        0.840179798   0.932230592  -0.009758284
O        0.597312795   0.694106419  -0.018020252
O        0.440788346   0.718853625   0.096902464
H        0.492965688   0.577050315   0.178755408
K_POINTS automatic 
  20 20 1   0 0 0 

