 &CONTROL
                 calculation = 'bands' ,
                      outdir = './tmp/' ,
                  pseudo_dir = '/home/deleted/pseudo_psl' ,
                      prefix = 'GCl_ip' ,
                   verbosity = 'high' ,
               etot_conv_thr = 1.0D-5 ,
               forc_conv_thr = 4.0D-4 ,
                       nstep = 1000 ,
                    dipfield = .true. ,
 /
 &SYSTEM
                       ibrav = 4,
                           A = 9.88 ,
                           C = 15 ,
                         nat = 33,
                        ntyp = 3,
                     ecutwfc = 40.424239707 ,
                     ecutrho = 404.24239707 ,
                 occupations = 'tetrahedra' ,
                     degauss = 0.01 ,
				   input_dft = 'vdW-DF' ,
 /
 &ELECTRONS
            electron_maxstep = 50001,
                    conv_thr = 1.0D-6 ,
                 mixing_mode = 'local-TF' ,
                 mixing_beta = 0.5 ,
 /
ATOMIC_SPECIES
    C   12.01100  C.revpbe-n-kjpaw_psl.0.1.UPF 
   Cl   35.45200  Cl.revpbe-n-kjpaw_psl.0.3.0.UPF 
    O   15.99940  O.revpbe-n-kjpaw_psl.0.1.UPF 
ATOMIC_POSITIONS crystal 
C        0.003490428   0.014992991   0.010832007
C        0.252106601   0.013517754   0.002075194
C        0.502333452   0.014822993   0.003589003
C        0.753635932   0.017471792   0.010549807
C        0.003226731   0.265534676   0.006408181
C        0.085581091   0.181531597   0.005098720
C        0.249682854   0.261861432  -0.010962194
C        0.335890202   0.180039486   0.001220782
C        0.499889307   0.260563806   0.017007651
C        0.585040039   0.180763269   0.011169745
C        0.752528984   0.265016362   0.015015409
C        0.835993488   0.183165860   0.011286944
C        0.003467675   0.515250553   0.008501009
C        0.087111427   0.431292270   0.002073006
C        0.252346405   0.512073335  -0.016851508
C        0.316915052   0.417856875  -0.041303425
C        0.586473119   0.419700553   0.055786531
C        0.752687008   0.514073005   0.028083527
C        0.836242356   0.432723914   0.017024137
C        0.000287938   0.763894910   0.009750528
C        0.085981951   0.681200655   0.004957143
C        0.254614139   0.763663714  -0.001125981
C        0.340495213   0.680919420  -0.009118002
C        0.506964721   0.769461510   0.000705328
Cl       0.459987600   0.479159369  -0.125541585
C        0.753040087   0.770012700   0.015298411
C        0.831189036   0.680105177   0.019733559
C        0.084640763   0.930386018   0.005762781
C        0.336239008   0.930286205   0.002179194
C        0.587489367   0.933750494   0.005298692
C        0.836900187   0.933732123   0.013032955
O        0.526789035   0.463790393   0.113369052
O        0.591741024   0.693751132   0.009093399
K_POINTS crystal_b 
4
0.0000000000    0.0000000000    0.0000000000 17
0.0000000000    0.5000000000    0.0000000000 10
0.3333333333    0.3333333333    0.0000000000 20
0.0000000000    0.0000000000    0.0000000000 1

