 &CONTROL
                 calculation = 'nscf' ,
                      outdir = './tmp/' ,
                  pseudo_dir = '/home/deleted/pseudo_psl' ,
                      prefix = 'GCl_op' ,
                   verbosity = 'high' ,
               etot_conv_thr = 1.0D-5 ,
               forc_conv_thr = 4.0D-4 ,
                       nstep = 1000 ,
                    dipfield = .true. ,
 /
 &SYSTEM
                       ibrav = 4,
                           A = 9.88 ,
                           C = 15 ,
                         nat = 34,
                        ntyp = 4,
                     ecutwfc = 40.424239707 ,
                     ecutrho = 404.24239707 ,
                 occupations = 'tetrahedra' ,
                     degauss = 0.01 ,
				   input_dft = 'vdW-DF' ,
    nspin = 2 ,
    starting_magnetization(1) = 0.5,
    starting_magnetization(2) = 0.5,
    starting_magnetization(3) = 0.5,
 /
 &ELECTRONS
            electron_maxstep = 50001,
                    conv_thr = 1.0D-6 ,
                 mixing_mode = 'local-TF' ,
                 mixing_beta = 0.5 ,
 /
ATOMIC_SPECIES
    C   12.01100  C.revpbe-n-kjpaw_psl.0.1.UPF 
   Cl   35.45200  Cl.revpbe-n-kjpaw_psl.0.3.0.UPF 
    O   15.99940  O.revpbe-n-kjpaw_psl.0.1.UPF 
    H   1.008000  H.revpbe-kjpaw_psl.0.1.UPF
ATOMIC_POSITIONS (crystal)
C        0.000180600   0.006128121  -0.004455668
C        0.246224249   0.000410786  -0.011966501
C        0.497836301   0.005952892  -0.003316793
C        0.751479262   0.010790087   0.013659519
C        0.001691248   0.256755691  -0.003489647
C        0.083510993   0.172452262  -0.007592229
C        0.250802811   0.252822230  -0.011927789
C        0.327680549   0.163333072  -0.013603352
C        0.493940866   0.252569789  -0.011566645
C        0.580979281   0.172297977  -0.007075927
C        0.747100184   0.256707690  -0.002828737
C        0.833173765   0.174293500   0.002226397
C       -0.001644413   0.504568607  -0.004364450
C        0.087751254   0.422238164  -0.004114850
C        0.261058525   0.503236057  -0.001789553
C        0.341576736   0.414657016  -0.008367765
C        0.564833205   0.414551779  -0.008107049
C        0.734127789   0.503240487  -0.002299851
C        0.826578986   0.422175955  -0.003710815
C       -0.004492881   0.752427736  -0.006794636
C        0.080716363   0.669290165  -0.008361934
C        0.249095135   0.752457267  -0.006310648
C        0.335695299   0.671662607   0.005763980
C        0.493467041   0.765913316   0.027336613
Cl       0.584557993   0.683931569   0.092899615
C        0.760627979   0.764712599   0.020823536
C        0.827592833   0.672085990   0.003627447
C        0.079029501   0.918446960  -0.008668268
C        0.331442164   0.918483431  -0.007916583
C        0.583004865   0.927244534   0.014140236
C        0.835880757   0.926770353   0.011284436
O        0.381791234   0.605246828   0.186510503
O        0.424885393   0.511756356   0.242775740
H        0.448777321   0.569055587   0.299093778
K_POINTS automatic 
  20 20 1   0 0 0 

