 &CONTROL
                 calculation = 'scf' ,
                      outdir = './tmp_subs/' ,
                  pseudo_dir = '/home/deleted/pseudo_psl' ,
                      prefix = 'GI_op_subs' ,
                   verbosity = 'high' ,
               etot_conv_thr = 1.0D-5 ,
               forc_conv_thr = 4.0D-4 ,
                       nstep = 1000 ,
                    dipfield = .true. ,
 /
 &SYSTEM
                       ibrav = 4,
                           A = 9.88 ,
                           C = 15 ,
                         nat = 31,
                        ntyp = 2,
                     ecutwfc = 40.424239707 ,
                     ecutrho = 404.24239707 ,
                 occupations = 'smearing' ,
                     degauss = 0.01 ,
				   input_dft = 'vdW-DF' ,
 /
 &ELECTRONS
            electron_maxstep = 50001,
                    conv_thr = 1.0D-6 ,
                 mixing_mode = 'local-TF' ,
                 mixing_beta = 0.5 ,
 /
ATOMIC_SPECIES
    C   12.01100  C.revpbe-n-kjpaw_psl.0.1.UPF 
    I  126.90400  I.revpbe-n-kjpaw_psl.0.2.UPF 
ATOMIC_POSITIONS crystal 
C       -0.001789813  -0.000892467  -0.002675838
C        0.244314177  -0.011371648  -0.002161434
C        0.500897346  -0.000892467  -0.002675838
C        0.756952234   0.013904466  -0.003503055
C        0.006968382   0.255604552  -0.003261073
C        0.084602088   0.166323790  -0.002706592
C        0.251598930   0.243162628  -0.002581266
C        0.325649683   0.151299368  -0.002093899
C        0.491563698   0.243162628  -0.002581266
C        0.581721701   0.166323790  -0.002706592
C        0.748636170   0.255604552  -0.003261073
C        0.838376055   0.176752112  -0.003263295
C        0.000394533   0.500789067  -0.004153608
C        0.095482780   0.420485321  -0.003983973
C        0.273209994   0.498499387  -0.004416184
C        0.351874481   0.405510720  -0.003485611
C        0.553636239   0.405510720  -0.003485611
C        0.725289393   0.498499387  -0.004416184
C        0.825002538   0.420485321  -0.003983973
C       -0.012921114   0.744737369  -0.003767962
C        0.082236598   0.664473197  -0.004053157
C        0.257658482   0.744737369  -0.003767962
C        0.356855228   0.666795370  -0.004419025
C        0.528657867   0.759954016  -0.002773123
I        0.595046211   0.690092423   0.205980124
C        0.731296148   0.759954016  -0.002773123
C        0.809940141   0.666795370  -0.004419025
C        0.075662696   0.909730974  -0.002642936
C        0.334068278   0.909730974  -0.002642936
C        0.591214971   0.922498556  -0.003163645
C        0.831283584   0.922498556  -0.003163645
K_POINTS automatic 
  16 16 1   0 0 0 

