 &CONTROL
                 calculation = 'scf' ,
                      outdir = './tmp/' ,
                  pseudo_dir = '/home/deleted/pseudo_psl' ,
                      prefix = 'GI_op' ,
                   verbosity = 'high' ,
               etot_conv_thr = 1.0D-5 ,
               forc_conv_thr = 4.0D-4 ,
                       nstep = 1000 ,
                    dipfield = .true. ,
 /
 &SYSTEM
                       ibrav = 4,
                           A = 9.88 ,
                           C = 15 ,
                         nat = 34,
                        ntyp = 4,
                     ecutwfc = 40.424239707 ,
                     ecutrho = 404.24239707 ,
                 occupations = 'smearing' ,
                     degauss = 0.01 ,
				   input_dft = 'vdW-DF' ,
 /
 &ELECTRONS
            electron_maxstep = 50001,
                    conv_thr = 1.0D-6 ,
                 mixing_mode = 'local-TF' ,
                 mixing_beta = 0.5 ,
 /
ATOMIC_SPECIES
    C   12.01100  C.revpbe-n-kjpaw_psl.0.1.UPF 
    I  126.90400  I.revpbe-n-kjpaw_psl.0.2.UPF 
    O   15.99940  O.revpbe-n-kjpaw_psl.0.1.UPF 
    H   1.008000  H.revpbe-kjpaw_psl.0.1.UPF
ATOMIC_POSITIONS crystal 
C       -0.003233268  -0.002780276   0.002169060
C        0.243016026  -0.013160430   0.002824461
C        0.499661156  -0.002775932   0.002894029
C        0.755973781   0.012825089   0.001893648
C        0.005891466   0.253970640   0.001984620
C        0.083160142   0.164565105   0.002219295
C        0.250115393   0.241182202   0.002448237
C        0.324036823   0.148943887   0.002870579
C        0.490097933   0.241173638   0.002905188
C        0.580426336   0.164575631   0.002801391
C        0.747031097   0.254022778   0.002459916
C        0.836937192   0.174925265   0.002014869
C       -0.000856075   0.499433676   0.002231426
C        0.094368489   0.418700636   0.002024009
C        0.271462656   0.496258015   0.001904404
C        0.350051153   0.403119295   0.002163014
C        0.552019673   0.403180208   0.002639703
C        0.723594063   0.496431273   0.002452987
C        0.823157805   0.418747627   0.002433780
C       -0.014719173   0.742985159   0.002266940
C        0.080528281   0.662184482   0.002272888
C        0.256595914   0.742788509   0.002368451
C        0.355574903   0.664856696   0.002318650
C        0.528333492   0.758246514   0.004034991
I        0.543116103   0.724024713   0.214338164
C        0.730113739   0.758737938   0.001711734
C        0.808129063   0.665284387   0.002101050
C        0.073897819   0.907723792   0.002472761
C        0.332949181   0.907689478   0.002800356
C        0.590147357   0.920859132   0.002965145
C        0.829865209   0.920711557   0.001625179
O        0.676810530   0.676894121   0.383428540
O        0.547817269   0.698414115   0.355654060
H        0.627425065   0.562558291   0.382955834
K_POINTS automatic 
  16 16 1   0 0 0 

