 &CONTROL
                 calculation = 'scf' ,
                      outdir = './tmp/' ,
                  pseudo_dir = '/home/deleted/pseudo_psl' ,
                      prefix = 'GI_op' ,
                   verbosity = 'high' ,
               etot_conv_thr = 1.0D-5 ,
               forc_conv_thr = 4.0D-4 ,
                       nstep = 1000 ,
                    dipfield = .true. ,
 /
 &SYSTEM
                       ibrav = 4,
                           A = 9.88 ,
                           C = 15 ,
                         nat = 34,
                        ntyp = 4,
                     ecutwfc = 40.424239707 ,
                     ecutrho = 404.24239707 ,
                 occupations = 'smearing' ,
                     degauss = 0.01 ,
				   input_dft = 'vdW-DF' ,
    nspin = 2 ,
    starting_magnetization(1) = 0.5,
    starting_magnetization(2) = 0.5,
    starting_magnetization(3) = 0.5,
 /
 &ELECTRONS
            electron_maxstep = 50001,
                    conv_thr = 1.0D-6 ,
                 mixing_mode = 'local-TF' ,
                 mixing_beta = 0.5 ,
 /
ATOMIC_SPECIES
    C   12.01100  C.revpbe-n-kjpaw_psl.0.1.UPF 
    I  126.90400  I.revpbe-n-kjpaw_psl.0.2.UPF 
    O   15.99940  O.revpbe-n-kjpaw_psl.0.1.UPF 
    H   1.008000  H.revpbe-kjpaw_psl.0.1.UPF
ATOMIC_POSITIONS (crystal)
C        0.037312626   0.046909369  -0.002821339
C        0.283328298   0.036530347  -0.002239992
C        0.539818651   0.046914245  -0.001291097
C        0.795883048   0.061615205  -0.001847013
C        0.045869236   0.303331640  -0.001867907
C        0.123475026   0.214016873  -0.001965899
C        0.290473514   0.290939128  -0.001660067
C        0.364653706   0.199173788  -0.001292729
C        0.530567943   0.290941507  -0.001037119
C        0.620702093   0.214059951  -0.000964291
C        0.787613417   0.303380849  -0.001344224
C        0.877260472   0.224392156  -0.001483979
C        0.039354163   0.548649922  -0.002939918
C        0.134248953   0.468228210  -0.002624641
C        0.311901875   0.546256149  -0.003341373
C        0.390273630   0.453236692  -0.002281513
C        0.593052020   0.453277915  -0.001944764
C        0.764399118   0.546280125  -0.003089517
C        0.864061520   0.468271164  -0.002360748
C        0.026353188   0.792749387  -0.004162481
C        0.121230505   0.712385925  -0.003708772
C        0.296494595   0.792658504  -0.003315284
C        0.395819176   0.714651577  -0.003666546
C        0.567340693   0.807701559  -0.002299353
I        0.601227271   0.700482144   0.216407283
C        0.770650015   0.807784471  -0.003137721
C        0.848911599   0.714733791  -0.004087297
C        0.114771942   0.957612975  -0.003539992
C        0.372967860   0.957599581  -0.002153491
C        0.630036332   0.970119872  -0.001689646
C        0.870303529   0.970134338  -0.002731688
O        0.070756066  -0.142272194   0.200750779
O        0.005068384  -0.053348829   0.218365091
H       -0.111086405  -0.129721969   0.224264468
K_POINTS automatic 
  16 16 1   0 0 0 

