 &CONTROL
                 calculation = 'nscf' ,
                      outdir = './tmp/' ,
                  pseudo_dir = '/home/deleted/pseudo_psl' ,
                      prefix = 'MVG_tc' ,
                    dipfield = .true. ,
                   verbosity = 'high',
                       nstep = 1000,
               forc_conv_thr = 4.0D-4,
               etot_conv_thr = 1.0D-5
 /
 &SYSTEM
                       ibrav = 4,
                           A = 9.88 ,
                           C = 15 ,
                         nat = 33,
                        ntyp = 2,
                     ecutwfc = 40.424239707 ,
                     ecutrho = 404.24239707 ,
                 occupations = 'tetrahedra' ,
                     degauss = 0.01 ,
				   input_dft = 'vdW-DF' ,
    nspin = 2 ,
    starting_magnetization(1) = 0.5,
	starting_magnetization(2) = 0.5,
 /
 &ELECTRONS
            electron_maxstep = 50001,
                    conv_thr = 1.0D-6 ,
                 mixing_mode = 'local-TF' ,
                 mixing_beta = 0.5 ,
 /
 &IONS
                ion_dynamics = 'bfgs' ,
 /
ATOMIC_SPECIES
    C   12.01100  C.revpbe-n-kjpaw_psl.0.1.UPF 
    O   15.99940  O.revpbe-n-kjpaw_psl.0.1.UPF 
ATOMIC_POSITIONS crystal 
C       -0.003054424   0.001910965  -0.006873937
C        0.243859033  -0.002728712  -0.005502989
C        0.495399641   0.001878758  -0.007150252
C        0.747565712   0.004686420  -0.010205874
C       -0.001788269   0.252732382  -0.002854215
C        0.080676300   0.168681338  -0.004284720
C        0.248606246   0.250088541  -0.003026736
C        0.325861983   0.161261153  -0.003779168
C        0.491945559   0.250023521  -0.002874296
C        0.578448267   0.168612671  -0.004227431
C        0.744974142   0.252683994  -0.002773402
C        0.830625672   0.170768167  -0.004807286
C       -0.004296490   0.500936652  -0.001992080
C        0.083819389   0.418559869  -0.001613989
C        0.256300420   0.501217150  -0.002393382
C        0.336641511   0.412666264   0.000751413
C        0.566470700   0.412567774   0.001134347
C        0.735379085   0.501133064  -0.001903889
C        0.825204113   0.418498280  -0.001378660
C       -0.007176032   0.748582982  -0.005513260
C        0.078370982   0.666265397  -0.003105411
C        0.246221794   0.748574756  -0.005955356
C        0.331597587   0.667678095  -0.009130134
C        0.498086646   0.754165248  -0.018030645
C        0.586908094   0.683258935  -0.031561731
C        0.746434634   0.754056287  -0.017184942
C        0.826531569   0.667627577  -0.008347093
C        0.077051320   0.915487122  -0.006497970
C        0.328868115   0.915466747  -0.006746298
C        0.581027787   0.921428681  -0.011671777
C        0.830816090   0.921402244  -0.011125538
O        0.520646119   0.653357361   0.198076419
O        0.603852257   0.797981422   0.202550281
K_POINTS automatic 
  20 20 1   0 0 0 

