 &CONTROL
                 calculation = 'scf' ,
                      outdir = './tmp/' ,
                  pseudo_dir = '/home/deleted/pseudo_psl' ,
                      prefix = 'GCl_op' ,
                   verbosity = 'high' ,
               etot_conv_thr = 1.0D-5 ,
               forc_conv_thr = 4.0D-4 ,
                       nstep = 1000 ,
                    dipfield = .true. ,
 /
 &SYSTEM
                       ibrav = 4,
                           A = 9.88 ,
                           C = 15 ,
                         nat = 32,
                        ntyp = 3,
                     ecutwfc = 40.424239707 ,
                     ecutrho = 404.24239707 ,
                 occupations = 'smearing' ,
                     degauss = 0.01 ,
				   input_dft = 'vdW-DF' ,
    nspin = 2 ,
    starting_magnetization(1) = 0.5,
    starting_magnetization(2) = 0.5,
    starting_magnetization(3) = 0.5,
 /
 &ELECTRONS
            electron_maxstep = 50001,
                    conv_thr = 1.0D-6 ,
                 mixing_mode = 'local-TF' ,
                 mixing_beta = 0.5 ,
 /
ATOMIC_SPECIES
    C   12.01100  C.revpbe-n-kjpaw_psl.0.1.UPF 
   Cl   35.45200  Cl.revpbe-n-kjpaw_psl.0.3.0.UPF 
    O   15.99940  O.revpbe-n-kjpaw_psl.0.1.UPF 
ATOMIC_POSITIONS (crystal)
C        0.011354306   0.006294795  -0.005303819
C        0.257505666  -0.004163647  -0.005405294
C        0.514111677   0.006305391  -0.005232550
C        0.770252819   0.021481925  -0.005122114
C        0.020366735   0.262997642  -0.005225768
C        0.097740155   0.173512081  -0.005095607
C        0.264676180   0.250254041  -0.005243752
C        0.338680941   0.158354905  -0.005109379
C        0.504668252   0.250251102  -0.005150448
C        0.594945553   0.173508613  -0.004912049
C        0.761818447   0.262963951  -0.004943817
C        0.851614956   0.183993905  -0.004914321
C        0.013903971   0.508130924  -0.005934441
C        0.108876512   0.427751671  -0.005900401
C        0.286655261   0.505573341  -0.006415385
C        0.364727138   0.412600135  -0.005973172
C        0.566760696   0.412494706  -0.005678934
C        0.738185507   0.505504829  -0.005810321
C        0.838208349   0.427735888  -0.005475972
C        0.000362226   0.752034191  -0.005976772
C        0.095675870   0.671641554  -0.006217455
C        0.271053869   0.752075743  -0.006387677
C        0.371063756   0.674318390  -0.006695453
C        0.542145459   0.767258395  -0.006364717
Cl       0.450623924   0.598828952   0.210743202
C        0.744193471   0.767336761  -0.006047522
C        0.822589649   0.674288207  -0.006059961
C        0.088729671   0.916817590  -0.005594754
C        0.347248292   0.916833459  -0.005754586
C        0.604377560   0.929607683  -0.005479527
C        0.844350171   0.929580880  -0.005494176
O        0.288812912   0.593125638   0.182498947
K_POINTS automatic 
  16 16 1   0 0 0 

