 &CONTROL
                 calculation = 'bands' ,
                      outdir = './tmp/' ,
                  pseudo_dir = '/home/deleted/pseudo_psl' ,
                      prefix = 'GCl_op' ,
                   verbosity = 'high' ,
               etot_conv_thr = 1.0D-5 ,
               forc_conv_thr = 4.0D-4 ,
                       nstep = 1000 ,
                    dipfield = .true. ,
 /
 &SYSTEM
                       ibrav = 4,
                           A = 9.88 ,
                           C = 15 ,
                         nat = 34,
                        ntyp = 4,
                     ecutwfc = 40.424239707 ,
                     ecutrho = 404.24239707 ,
                 occupations = 'tetrahedra' ,
                     degauss = 0.01 ,
				   input_dft = 'vdW-DF' ,
 /
 &ELECTRONS
            electron_maxstep = 50001,
                    conv_thr = 1.0D-6 ,
                 mixing_mode = 'local-TF' ,
                 mixing_beta = 0.5 ,
 /
ATOMIC_SPECIES
    C   12.01100  C.revpbe-n-kjpaw_psl.0.1.UPF 
   Cl   35.45200  Cl.revpbe-n-kjpaw_psl.0.3.0.UPF 
    O   15.99940  O.revpbe-n-kjpaw_psl.0.1.UPF 
    H   1.008000  H.revpbe-kjpaw_psl.0.1.UPF
ATOMIC_POSITIONS crystal 
C        0.004061488   0.004252213  -0.003716902
C        0.250160358  -0.001416242  -0.011069086
C        0.501758171   0.004093052  -0.002355967
C        0.755401075   0.008926945   0.014610924
C        0.005628093   0.254894321  -0.002749907
C        0.087484588   0.170608515  -0.006840616
C        0.254744980   0.250985468  -0.011421031
C        0.331632697   0.161522103  -0.013007050
C        0.497880893   0.250706276  -0.011229651
C        0.584934607   0.170446777  -0.006459095
C        0.751070473   0.254875494  -0.002188847
C        0.837105448   0.172448228   0.003105787
C        0.002330464   0.502743686  -0.003866493
C        0.091758516   0.420393333  -0.003476011
C        0.265105899   0.501433182  -0.001273003
C        0.345662159   0.412887292  -0.008067710
C        0.568704769   0.412726484  -0.008155270
C        0.738056629   0.501428618  -0.002572432
C        0.830536227   0.420321184  -0.003449890
C       -0.000553271   0.750581023  -0.006274119
C        0.084684796   0.667471658  -0.007786309
C        0.253104272   0.750641616  -0.005603036
C        0.339585447   0.669817989   0.006598420
C        0.497053588   0.764090155   0.028920292
Cl       0.588020188   0.681031461   0.093902040
C        0.763870306   0.762492144   0.020128134
C        0.831396605   0.670177083   0.003387574
C        0.082971242   0.916629456  -0.007876003
C        0.335417068   0.916702666  -0.006976024
C        0.586898998   0.925333952   0.015452151
C        0.839596210   0.924773556   0.011705250
O        0.386863072   0.597889088   0.189617887
O        0.375138692   0.449434296   0.215643262
H        0.401502793   0.467834039   0.278962415
K_POINTS automatic  
4
0.0000000000    0.0000000000    0.0000000000 17
0.0000000000    0.5000000000    0.0000000000 10
0.3333333333    0.3333333333    0.0000000000 20
0.0000000000    0.0000000000    0.0000000000 1

