 &CONTROL
                 calculation = 'scf' ,
                      outdir = './tmp_subs/' ,
                  pseudo_dir = '/home/deleted/pseudo_psl' ,
                      prefix = 'GF_op-subs' ,
                   verbosity = 'high' ,
               etot_conv_thr = 1.0D-5 ,
               forc_conv_thr = 4.0D-4 ,
                       nstep = 1000 ,
                    dipfield = .true. ,
 /
 &SYSTEM
                       ibrav = 4,
                           A = 9.88 ,
                           C = 15 ,
                         nat = 31,
                        ntyp = 2,
                     ecutwfc = 40.424239707 ,
                     ecutrho = 404.24239707 ,
                 occupations = 'smearing' ,
                     degauss = 0.01 ,
				   input_dft = 'vdW-DF' ,
    nspin = 2 ,
    starting_magnetization(1) = 0.5,
    starting_magnetization(2) = 0.5,
 /
 &ELECTRONS
            electron_maxstep = 50001,
                    conv_thr = 1.0D-6 ,
                 mixing_mode = 'local-TF' ,
                 mixing_beta = 0.5 ,
 /
ATOMIC_SPECIES
    C   12.01100  C.revpbe-n-kjpaw_psl.0.1.UPF 
    F   18.99800  F.revpbe-n-kjpaw_psl.0.1.UPF 
ATOMIC_POSITIONS (crystal)
C       -0.000946578  -0.003505986   0.008489537
C        0.243746215  -0.012507571   0.006902685
C        0.497440592  -0.003505986   0.008489537
C        0.752095448   0.004190896   0.012219311
C        0.002657767   0.248992868   0.008817970
C        0.083441600   0.163014639   0.007645783
C        0.250041972   0.241171291   0.006740218
C        0.325275305   0.150550613   0.006116096
C        0.491129320   0.241171291   0.006740218
C        0.579573038   0.163014639   0.007645783
C        0.746335100   0.248992868   0.008817970
C        0.834317239   0.168634479   0.010121278
C       -0.002332532   0.495334934   0.009345307
C        0.090193233   0.414205224   0.009094260
C        0.266451331   0.494371592   0.009759732
C        0.347927142   0.403406310   0.008340959
C        0.555479167   0.403406310   0.008340959
C        0.727920262   0.494371592   0.009759732
C        0.824011990   0.414205224   0.009094260
C       -0.008853809   0.741522260   0.009261194
C        0.080163116   0.660326233   0.008983018
C        0.250376069   0.741522260   0.009261194
C        0.341055819   0.662355584   0.011525471
C        0.507024423   0.755641466   0.014110479
F        0.653286443   0.806572888  -0.140711588
C        0.748617043   0.755641466   0.014110479
C        0.821299764   0.662355584   0.011525471
C        0.076704801   0.907531845   0.008001871
C        0.330827043   0.907531845   0.008001871
C        0.585614434   0.919356828   0.011567131
C        0.833742393   0.919356828   0.011567131
K_POINTS automatic 
  16 16 1   0 0 0 

