 &CONTROL
                 calculation = 'scf' ,
                      outdir = './tmp/' ,
                  pseudo_dir = '/home/deleted/pseudo_psl' ,
                      prefix = 'GBr_ip' ,
                   verbosity = 'high' ,
               etot_conv_thr = 1.0D-5 ,
               forc_conv_thr = 4.0D-4 ,
                       nstep = 1000 ,
                    dipfield = .true. ,
 /
 &SYSTEM
                       ibrav = 4,
                           A = 9.88 ,
                           C = 15 ,
                         nat = 33,
                        ntyp = 3,
                     ecutwfc = 40.424239707 ,
                     ecutrho = 404.24239707 ,
                 occupations = 'smearing' ,
                     degauss = 0.01 ,
				   input_dft = 'vdW-DF' ,
    nspin = 2 ,
    starting_magnetization(1) = 0.5,
    starting_magnetization(2) = 0.5,
    starting_magnetization(3) = 0.5,
 /
 &ELECTRONS
            electron_maxstep = 50001,
                    conv_thr = 1.0D-6 ,
                 mixing_mode = 'local-TF' ,
                 mixing_beta = 0.5 ,
 /
ATOMIC_SPECIES
    C   12.01100  C.revpbe-n-kjpaw_psl.0.1.UPF 
   Br   79.90350  Br.revpbe-n-kjpaw_psl.0.2.UPF 
    O   15.99940  O.revpbe-n-kjpaw_psl.0.1.UPF 
ATOMIC_POSITIONS (crystal)
C       -0.001100945   0.009272553   0.003063366
C        0.251384743   0.015918592   0.006047276
C        0.497180258   0.009186004   0.001830368
C        0.745350852   0.003959101  -0.004409264
C       -0.004969468   0.256204943   0.007710181
C        0.080768059   0.176370985   0.002406005
C        0.248333697   0.263303161  -0.006021771
C        0.334200174   0.181610755  -0.003974323
C        0.501785746   0.263317232  -0.004995507
C        0.582435826   0.176294072   0.002726437
C        0.747990888   0.256171078   0.008348704
C        0.828222474   0.169637465   0.005829523
C       -0.002087983   0.508748497   0.019096221
C        0.075776617   0.422962443   0.012462026
C        0.238408604   0.507811980  -0.000631009
C        0.314740170   0.426304586  -0.015414973
C        0.598396255   0.426578995  -0.012355453
C        0.755989903   0.507807283   0.002914783
C        0.834040661   0.422805805   0.014177882
C        0.004017228   0.762783788   0.014418641
C        0.081971077   0.676841045   0.019154512
C        0.245604016   0.762628307   0.012206799
C        0.323373752   0.677845737  -0.001045134
C        0.481067307   0.759339658  -0.016359788
Br       0.540300406   0.592644097  -0.039862862
C        0.764727736   0.759081178  -0.012631889
C        0.840994352   0.677839930   0.002964850
C        0.084602662   0.929419203   0.008703603
C        0.331636003   0.929352279   0.007449196
C        0.577772725   0.922271252  -0.006822968
C        0.831270440   0.922298526  -0.005105645
O        0.541592147   0.713538677   0.197963175
O        0.529812586   0.583659969   0.180157040
K_POINTS automatic 
  16 16 1   0 0 0 

