 &CONTROL
                 calculation = 'nscf' ,
                      outdir = './tmp/' ,
                  pseudo_dir = '/home/deleted/pseudo_psl' ,
                      prefix = 'GCl_ip' ,
                   verbosity = 'high' ,
               etot_conv_thr = 1.0D-5 ,
               forc_conv_thr = 4.0D-4 ,
                       nstep = 1000 ,
                    dipfield = .true. ,
 /
 &SYSTEM
                       ibrav = 4,
                           A = 9.88 ,
                           C = 15 ,
                         nat = 34,
                        ntyp = 4,
                     ecutwfc = 40.424239707 ,
                     ecutrho = 404.24239707 ,
                 occupations = 'tetrahedra' ,
                     degauss = 0.01 ,
				   input_dft = 'vdW-DF' ,
 /
 &ELECTRONS
            electron_maxstep = 50001,
                    conv_thr = 1.0D-6 ,
                 mixing_mode = 'local-TF' ,
                 mixing_beta = 0.5 ,
 /
ATOMIC_SPECIES
    C   12.01100  C.revpbe-n-kjpaw_psl.0.1.UPF 
   Cl   35.45200  Cl.revpbe-n-kjpaw_psl.0.3.0.UPF 
    O   15.99940  O.revpbe-n-kjpaw_psl.0.1.UPF 
    H   1.008000  H.revpbe-kjpaw_psl.0.1.UPF
ATOMIC_POSITIONS crystal 
C       -0.006279584  -0.004489695   0.008698116
C        0.242762205  -0.005611916   0.012037265
C        0.492923120  -0.003906302   0.013330174
C        0.743914490  -0.003397750   0.010091832
C       -0.005344040   0.246541110   0.013621408
C        0.075691211   0.161376956   0.015857175
C        0.241770439   0.242328523   0.017191042
C        0.325176835   0.159177514   0.012575486
C        0.491934582   0.242976243   0.007878404
C        0.576980950   0.161903348   0.006404326
C        0.743350872   0.246490045   0.008533652
C        0.827144404   0.162702428   0.010488244
C       -0.006294688   0.495607150   0.012268256
C        0.079014220   0.412821155   0.018690010
C        0.248227421   0.495802341   0.029329368
C        0.323967959   0.405809885   0.022353434
C        0.573595197   0.406675288   0.006006858
C        0.739246467   0.495751541  -0.003417175
C        0.825591137   0.412769801   0.005292033
C       -0.006761570   0.745532259   0.005689000
C        0.077013598   0.661992065   0.012971501
C        0.244467910   0.745666273   0.019865054
C        0.329883532   0.665161488   0.036846031
C        0.490978552   0.760801852   0.058857707
Cl       0.616185370   0.695357854  -0.118042140
C        0.762202124   0.758680206  -0.035546166
C        0.827361250   0.664668326  -0.011609448
C        0.076390221   0.911650806   0.008450326
C        0.326512521   0.911770846   0.015373993
C        0.577332152   0.915975872   0.025532410
C        0.828979491   0.915177124  -0.005099267
O        0.572555479   0.720967585   0.116325692
O        0.487660337   0.482665116   0.019331425
H        0.529462873   0.608209541   0.118311490
K_POINTS automatic 
  20 20 1   0 0 0 

