 &CONTROL
                 calculation = 'scf' ,
                      outdir = './tmp_subs/' ,
                  pseudo_dir = '/home/deleted/pseudo_psl' ,
                      prefix = 'GF_ip_subs' ,
                   verbosity = 'high' ,
               etot_conv_thr = 1.0D-5 ,
               forc_conv_thr = 4.0D-4 ,
                       nstep = 1000 ,
                    dipfield = .true. ,
 /
 &SYSTEM
                       ibrav = 4,
                           A = 9.88 ,
                           C = 15 ,
                         nat = 31,
                        ntyp = 2,
                     ecutwfc = 40.424239707 ,
                     ecutrho = 404.24239707 ,
                 occupations = 'smearing' ,
                     degauss = 0.01 ,
				   input_dft = 'vdW-DF' ,
 /
 &ELECTRONS
            electron_maxstep = 50001,
                    conv_thr = 1.0D-6 ,
                 mixing_mode = 'local-TF' ,
                 mixing_beta = 0.5 ,
 /
ATOMIC_SPECIES
    C   12.01100  C.revpbe-n-kjpaw_psl.0.1.UPF 
    F   18.99800  F.revpbe-n-kjpaw_psl.0.1.UPF 
ATOMIC_POSITIONS crystal 
C        0.007107835   0.010735972   0.004807940
C        0.251374082   0.002748164   0.006974599
C        0.503628137   0.010735972   0.004807940
C        0.758177874   0.016355749  -0.001253031
C        0.008603993   0.261546584   0.002558744
C        0.090395238   0.177020424   0.004500552
C        0.257432674   0.255866615   0.005293240
C        0.332733007   0.165466014   0.006530021
C        0.498433940   0.255866615   0.005293240
C        0.586625185   0.177020424   0.004500552
C        0.752942590   0.261546584   0.002558744
C        0.840192380   0.180384761   0.000752043
C        0.004209889   0.508419780   0.003779587
C        0.095264624   0.426709237   0.003194503
C        0.269767813   0.506347255   0.003406799
C        0.352270532   0.417684835   0.003741853
C        0.565414302   0.417684835   0.003741853
C        0.736579443   0.506347255   0.003406799
C        0.831444612   0.426709237   0.003194503
C        0.000599493   0.755713781   0.005793794
C        0.086517491   0.673034983   0.005791509
C        0.255114288   0.755713781   0.005793794
C        0.343354630   0.674206450   0.003179854
C        0.503595861   0.772008737   0.002966680
F        0.597971691   0.695943382  -0.037895670
C        0.768412876   0.772008737   0.002966680
C        0.830851819   0.674206450   0.003179854
C        0.084559537   0.921571010   0.006419641
C        0.337011471   0.921571010   0.006419641
C        0.591395559   0.932810074   0.000290836
C        0.841414514   0.932810074   0.000290836
K_POINTS automatic 
  16 16 1   0 0 0 

