 &CONTROL
                 calculation = 'relax' ,
                      outdir = './tmp/' ,
                  pseudo_dir = '/home/deleted/pseudo_psl' ,
                      prefix = 'GBr_ip' ,
                   verbosity = 'high' ,
               etot_conv_thr = 1.0D-5 ,
               forc_conv_thr = 4.0D-4 ,
                       nstep = 1000 ,
                    dipfield = .true. ,
 /
 &SYSTEM
                       ibrav = 4,
                           A = 9.88 ,
                           C = 15 ,
                         nat = 33,
                        ntyp = 3,
                     ecutwfc = 40.424239707 ,
                     ecutrho = 404.24239707 ,
                 occupations = 'smearing' ,
                     degauss = 0.01 ,
				   input_dft = 'vdW-DF' ,
 /
 &ELECTRONS
            electron_maxstep = 50001,
                    conv_thr = 1.0D-6 ,
                 mixing_mode = 'local-TF' ,
                 mixing_beta = 0.5 ,
 /
 &IONS
                ion_dynamics = 'bfgs' ,
 /
ATOMIC_SPECIES
    C   12.01100  C.revpbe-n-kjpaw_psl.0.1.UPF 
   Br   79.90350  Br.revpbe-n-kjpaw_psl.0.2.UPF 
    O   15.99940  O.revpbe-n-kjpaw_psl.0.1.UPF 
ATOMIC_POSITIONS crystal 
C       -0.004739775   0.005963564  -0.003301550
C        0.249062177   0.012332670   0.005718354
C        0.497431279   0.010504821   0.009976871
C        0.743085608  -0.000157775  -0.001685651
C       -0.006721650   0.253886575   0.010360656
C        0.078730271   0.173257065   0.007582634
C        0.245922340   0.259140316   0.017984182
C        0.332290070   0.179533471   0.006188051
C        0.501572547   0.264045331  -0.004901484
C        0.581558997   0.176635841   0.000759958
C        0.747880630   0.253776354  -0.003479691
C        0.827748159   0.166764912   0.001509415
C       -0.000924166   0.508198660   0.006637163
C        0.077688886   0.422539228   0.016663004
C        0.240429498   0.506572284   0.035032183
C        0.319741395   0.419638811   0.054280630
C        0.594680493   0.423452368  -0.029545127
C        0.755260194   0.502360601  -0.020245359
C        0.835025691   0.420155020  -0.005851317
C        0.001641331   0.759914201  -0.005431245
C        0.081378109   0.676352444   0.007379064
C        0.244578181   0.761031186   0.020488170
C        0.323501445   0.676320645   0.033602104
C        0.485373562   0.761798422   0.022551528
Br       0.540095711   0.603927781  -0.027908818
C        0.759770093   0.753635923  -0.023577674
C        0.838682922   0.671806006  -0.018210125
C        0.081627805   0.926288432  -0.002494276
C        0.331204383   0.927934712   0.013207689
C        0.575875791   0.922186756   0.008140026
C        0.826719128   0.916439401  -0.009100204
O        0.551993990   0.579330713   0.147249221
O        0.408501567   0.437766598   0.130421618
K_POINTS automatic 
  4 4 1   0 0 0 

