 &CONTROL
                 calculation = 'relax' ,
                      outdir = './tmp/' ,
                  pseudo_dir = '/home/deleted/pseudo_psl' ,
                      prefix = 'GBr_op' ,
                   verbosity = 'high' ,
               etot_conv_thr = 1.0D-5 ,
               forc_conv_thr = 4.0D-4 ,
                       nstep = 1000 ,
                    dipfield = .true. ,
 /
 &SYSTEM
                       ibrav = 4,
                           A = 9.88 ,
                           C = 15 ,
                         nat = 33,
                        ntyp = 3,
                     ecutwfc = 40.424239707 ,
                     ecutrho = 404.24239707 ,
                 occupations = 'smearing' ,
                     degauss = 0.01 ,
				   input_dft = 'vdW-DF' ,
 /
 &ELECTRONS
            electron_maxstep = 50001,
                    conv_thr = 1.0D-6 ,
                 mixing_mode = 'local-TF' ,
                 mixing_beta = 0.5 ,
 /
 &IONS
                ion_dynamics = 'bfgs' ,
 /
ATOMIC_SPECIES
    C   12.01100  C.revpbe-n-kjpaw_psl.0.1.UPF 
   Br   79.90350  Br.revpbe-n-kjpaw_psl.0.2.UPF 
    O   15.99940  O.revpbe-n-kjpaw_psl.0.1.UPF 
ATOMIC_POSITIONS crystal 
C       -0.001935762  -0.001157076  -0.000727729
C        0.244116902  -0.011766195  -0.000268794
C        0.500778686  -0.001157076  -0.000727729
C        0.756719639   0.013439277  -0.001710169
C        0.006747710   0.255307511  -0.001947493
C        0.084526759   0.166048345  -0.001234957
C        0.251571267   0.242947397  -0.001414951
C        0.325524968   0.151049938  -0.000734743
C        0.491376130   0.242947397  -0.001414951
C        0.581521585   0.166048345  -0.001234957
C        0.748559801   0.255307511  -0.001947493
C        0.838286928   0.176573858  -0.001891604
C        0.000206717   0.500413435  -0.002649149
C        0.095307442   0.420206945  -0.002659009
C        0.273332217   0.498374218  -0.003076567
C        0.352322462   0.405381920  -0.002479842
C        0.553059457   0.405381920  -0.002479842
C        0.725042001   0.498374218  -0.003076567
C        0.824899503   0.420206945  -0.002659009
C       -0.013085590   0.744378331  -0.001729037
C        0.082129071   0.664258143  -0.002190055
C        0.257463922   0.744378331  -0.001729037
C        0.356461763   0.666345828  -0.002531151
C        0.528676516   0.759481686  -0.000077988
Br       0.597306339   0.694612679   0.181650318
C        0.730805170   0.759481686  -0.000077988
C        0.809884064   0.666345828  -0.002531151
C        0.075586039   0.909449941  -0.000540866
C        0.333863901   0.909449941  -0.000540866
C        0.591115757   0.922277722  -0.001016646
C        0.831161964   0.922277722  -0.001016646
O        0.416666666   0.583333333   0.159666667
O        0.416666666   0.583333333   0.240333333
K_POINTS automatic 
  4 4 1   0 0 0 

