&PROJWFC
  outdir = './tmp',
  prefix = 'HOH',
  filpdos = 'HOH-pdos',
  ngauss = 1,
  degauss = 0.01,
  DeltaE = 0.01,
  lsym = .true.
/
