 &CONTROL
                 calculation = 'bands' ,
                      outdir = './tmp/' ,
                  pseudo_dir = '/home/deleted/pseudo_psl' ,
                      prefix = 'PG_txc' ,
                    dipfield = .true. ,
                   verbosity = 'high',
                       nstep = 1000,
               forc_conv_thr = 4.0D-4,
               etot_conv_thr = 1.0D-5
 /
 &SYSTEM
                       ibrav = 4,
                           A = 9.88 ,
                           C = 15 ,
                         nat = 34,
                        ntyp = 2,
                     ecutwfc = 40.424239707 ,
                     ecutrho = 404.24239707 ,
                 occupations = 'tetrahedra' ,
                     degauss = 0.01 ,
				   input_dft = 'vdW-DF' ,
    nspin = 2 ,
    starting_magnetization(1) = 0.5,
	starting_magnetization(2) = 0.5,
 /
 &ELECTRONS
            electron_maxstep = 50001,
                    conv_thr = 1.0D-6 ,
                 mixing_mode = 'local-TF' ,
                 mixing_beta = 0.5 ,
 /
ATOMIC_SPECIES
    C   12.01100  C.revpbe-n-kjpaw_psl.0.1.UPF 
    O   15.99940  O.revpbe-n-kjpaw_psl.0.1.UPF 
ATOMIC_POSITIONS crystal 
C       -0.000023449  -0.000010024  -0.008900367
C        0.249995506  -0.000001647  -0.008734270
C        0.500002607  -0.000024978  -0.008920214
C        0.749977870  -0.000027946  -0.009254729
C       -0.000004690   0.249994786  -0.008829919
C        0.083323029   0.166653812  -0.008829382
C        0.250005475   0.250016053  -0.008899408
C        0.333325069   0.166661156  -0.008783221
C        0.499999913   0.250007680  -0.008721044
C        0.583320223   0.166645377  -0.008721379
C        0.749987762   0.249982915  -0.008783783
C        0.833319547   0.166640955  -0.008900613
C        0.000006170   0.500000841  -0.008784796
C        0.083337393   0.416661837  -0.008900846
C        0.250024055   0.500013723  -0.009254974
C        0.333338394   0.416677557  -0.009253253
C        0.500014347   0.500048244  -0.009462055
C        0.583320285   0.416675996  -0.008919190
C        0.749992096   0.499996994  -0.008798838
C        0.833328293   0.416656047  -0.008734867
C       -0.000016038   0.749994643  -0.008723173
C        0.083333458   0.666660040  -0.008723533
C        0.250022214   0.749993131  -0.008921002
C        0.333373199   0.666677406  -0.009462731
C        0.500016324   0.749981752  -0.010017348
C        0.583307503   0.666674768  -0.010017467
C        0.749943016   0.749980930  -0.009463156
C        0.833306526   0.666660926  -0.008921314
C        0.083316771   0.916651241  -0.008784201
C        0.333321099   0.916655010  -0.008797665
C        0.583301856   0.916601562  -0.009462513
C        0.833301970   0.916637404  -0.009254287
O        0.541977345   0.708671377   0.203106963
O        0.541571524   0.708223770   0.285828575
K_POINTS crystal_b 
4
0.0000000000    0.0000000000    0.0000000000 17
0.0000000000    0.5000000000    0.0000000000 10
0.3333333333    0.3333333333    0.0000000000 20
0.0000000000    0.0000000000    0.0000000000 1

