 &CONTROL
                 calculation = 'bands' ,
                      outdir = './tmp/' ,
                  pseudo_dir = '/home/deleted/pseudo_psl' ,
                      prefix = 'GBr_op' ,
                   verbosity = 'high' ,
               etot_conv_thr = 1.0D-5 ,
               forc_conv_thr = 4.0D-4 ,
                       nstep = 1000 ,
                    dipfield = .true. ,
 /
 &SYSTEM
                       ibrav = 4,
                           A = 9.88 ,
                           C = 15 ,
                         nat = 34,
                        ntyp = 4,
                     ecutwfc = 40.424239707 ,
                     ecutrho = 404.24239707 ,
                 occupations = 'tetrahedra' ,
                     degauss = 0.01 ,
				   input_dft = 'vdW-DF' ,
    nspin = 2 ,
    starting_magnetization(1) = 0.5,
    starting_magnetization(2) = 0.5,
    starting_magnetization(3) = 0.5,
 /
 &ELECTRONS
            electron_maxstep = 50001,
                    conv_thr = 1.0D-6 ,
                 mixing_mode = 'local-TF' ,
                 mixing_beta = 0.5 ,
 /
ATOMIC_SPECIES
    C   12.01100  C.revpbe-n-kjpaw_psl.0.1.UPF 
   Br   79.90350  Br.revpbe-n-kjpaw_psl.0.2.UPF 
    O   15.99940  O.revpbe-n-kjpaw_psl.0.1.UPF 
    H   1.008000  H.revpbe-kjpaw_psl.0.1.UPF
ATOMIC_POSITIONS (crystal)
C       -0.001523647  -0.000436050  -0.004045426
C        0.244705156  -0.010881701  -0.004138818
C        0.501343792  -0.000467613  -0.005484995
C        0.757744050   0.015260591  -0.005262534
C        0.007854860   0.256407930  -0.004570822
C        0.085029850   0.166924896  -0.004348901
C        0.251985106   0.243495902  -0.004537185
C        0.325732836   0.151224905  -0.004522288
C        0.491793723   0.243506345  -0.005164704
C        0.582150621   0.166887093  -0.005379598
C        0.748849560   0.256400980  -0.005121555
C        0.838802828   0.177296160  -0.005096329
C        0.001075283   0.501844075  -0.004098542
C        0.096557445   0.421175527  -0.004280509
C        0.273970263   0.498830796  -0.004398869
C        0.352431091   0.405518989  -0.004861869
C        0.553391596   0.405518785  -0.005302554
C        0.725091004   0.498776983  -0.004675339
C        0.824899495   0.421145924  -0.004565951
C       -0.013007628   0.745302282  -0.003733807
C        0.082467148   0.664643409  -0.003792833
C        0.258583820   0.745317080  -0.004057884
C        0.358375307   0.667722908  -0.004301988
C        0.530033543   0.761074709  -0.004771086
Br       0.614244629   1.020536305   0.245189700
C        0.731178581   0.760994029  -0.004198515
C        0.809579862   0.667697742  -0.004052160
C        0.075633387   0.910040647  -0.003771318
C        0.334698548   0.910045878  -0.004558139
C        0.591721434   0.923032404  -0.005531992
C        0.831535977   0.923028152  -0.004383362
O        0.483373041   0.467177716   0.201859511
O        0.474516191   0.343670171   0.227400578
H        0.575996550   0.133432667   0.210895933
K_POINTS automatic 
  20 20 1   0 0 0 

