 &CONTROL
                 calculation = 'relax' ,
                      outdir = './tmp/' ,
                  pseudo_dir = '/home/deleted/pseudo_psl' ,
                      prefix = 'GBr_op' ,
                   verbosity = 'high' ,
               etot_conv_thr = 1.0D-5 ,
               forc_conv_thr = 4.0D-4 ,
                       nstep = 1000 ,
                    dipfield = .true. ,
 /
 &SYSTEM
                       ibrav = 4,
                           A = 9.88 ,
                           C = 15 ,
                         nat = 34,
                        ntyp = 4,
                     ecutwfc = 40.424239707 ,
                     ecutrho = 404.24239707 ,
                 occupations = 'smearing' ,
                     degauss = 0.01 ,
				   input_dft = 'vdW-DF' ,
 /
 &ELECTRONS
            electron_maxstep = 50001,
                    conv_thr = 1.0D-6 ,
                 mixing_mode = 'local-TF' ,
                 mixing_beta = 0.5 ,
 /
 &IONS
                ion_dynamics = 'bfgs' ,
 /
ATOMIC_SPECIES
    C   12.01100  C.revpbe-n-kjpaw_psl.0.1.UPF 
   Br   79.90350  Br.revpbe-n-kjpaw_psl.0.2.UPF 
    O   15.99940  O.revpbe-n-kjpaw_psl.0.1.UPF 
    H   1.008000  H.revpbe-kjpaw_psl.0.1.UPF
ATOMIC_POSITIONS crystal 
C       -0.008148459  -0.004120001  -0.007428155
C        0.238091509  -0.014453251  -0.007746300
C        0.494648139  -0.004074377  -0.008698382
C        0.750746312   0.011068815  -0.008324355
C        0.000790520   0.252503067  -0.007204189
C        0.078206999   0.163098749  -0.007106476
C        0.245175025   0.239870087  -0.007290847
C        0.319287160   0.147900214  -0.007556774
C        0.485242247   0.239795778  -0.007848157
C        0.575480895   0.163094188  -0.008130605
C        0.742277562   0.252507445  -0.007829356
C        0.832015016   0.173506370  -0.007707581
C       -0.005802549   0.497807736  -0.007736064
C        0.089314503   0.417298669  -0.007462230
C        0.267006329   0.495144306  -0.007818338
C        0.345106683   0.401954878  -0.007668291
C        0.547497431   0.402001201  -0.007905756
C        0.718753724   0.495164686  -0.008092165
C        0.818583292   0.417332490  -0.007768019
C       -0.019287596   0.741706329  -0.008041508
C        0.075903861   0.661203874  -0.008065384
C        0.251520567   0.741650467  -0.008354034
C        0.351285524   0.663896661  -0.008499736
C        0.522653897   0.757142939  -0.008979848
Br       0.584116584   0.616635019   0.226993097
C        0.725205037   0.757143118  -0.008645214
C        0.803209356   0.663939087  -0.008379372
C        0.069200982   0.906478653  -0.007639415
C        0.327888995   0.906522720  -0.008340973
C        0.584930051   0.919292763  -0.009304634
C        0.824918932   0.919126823  -0.008109704
O        0.595534655   0.842353725   0.197111644
O        0.727963001   0.964627337   0.197718846
H        0.674812116   0.889829988   0.099217791
K_POINTS automatic 
  4 4 1   0 0 0 

