 &CONTROL
                 calculation = 'scf' ,
                      outdir = './tmp/' ,
                  pseudo_dir = '/home/deleted/pseudo_psl' ,
                      prefix = 'GBr_op' ,
                   verbosity = 'high' ,
               etot_conv_thr = 1.0D-5 ,
               forc_conv_thr = 4.0D-4 ,
                       nstep = 1000 ,
                    dipfield = .true. ,
 /
 &SYSTEM
                       ibrav = 4,
                           A = 9.88 ,
                           C = 15 ,
                         nat = 33,
                        ntyp = 3,
                     ecutwfc = 40.424239707 ,
                     ecutrho = 404.24239707 ,
                 occupations = 'smearing' ,
                     degauss = 0.01 ,
				   input_dft = 'vdW-DF' ,
    nspin = 2 ,
    starting_magnetization(1) = 0.5,
    starting_magnetization(2) = 0.5,
    starting_magnetization(3) = 0.5,
 /
 &ELECTRONS
            electron_maxstep = 50001,
                    conv_thr = 1.0D-6 ,
                 mixing_mode = 'local-TF' ,
                 mixing_beta = 0.5 ,
 /
ATOMIC_SPECIES
    C   12.01100  C.revpbe-n-kjpaw_psl.0.1.UPF 
   Br   79.90350  Br.revpbe-n-kjpaw_psl.0.2.UPF 
    O   15.99940  O.revpbe-n-kjpaw_psl.0.1.UPF 
ATOMIC_POSITIONS (crystal)
C        0.000987410   0.002585917  -0.009482042
C        0.248463011  -0.006629977  -0.008662758
C        0.504334603   0.003013462  -0.007221107
C        0.759617663   0.017252450  -0.007925866
C        0.009597221   0.259407342  -0.007306159
C        0.086839166   0.169903877  -0.008816738
C        0.253920354   0.247440717  -0.008373958
C        0.330692436   0.157110014  -0.005769297
C        0.494411441   0.245609124   0.000878169
C        0.584819797   0.170209527  -0.003295432
C        0.752297523   0.259256621  -0.003782805
C        0.840759347   0.180358448  -0.006120710
C        0.003768707   0.505025728  -0.007748450
C        0.097164092   0.424262331  -0.007200729
C        0.273240808   0.502442678  -0.007793995
C        0.348880464   0.409247749  -0.008641972
C        0.560182528   0.412214202   0.013122957
C        0.735203271   0.504222514  -0.004498912
C        0.829817058   0.425428197  -0.005784833
C       -0.007621570   0.749604913  -0.010223290
C        0.086212897   0.669065560  -0.009063598
C        0.261214283   0.749195537  -0.008840608
C        0.359926961   0.671085021  -0.008783553
C        0.531960790   0.763116395  -0.009425349
Br       0.544157860   0.452029022   0.158934540
C        0.733680978   0.762916056  -0.009327853
C        0.814311146   0.670190525  -0.009061210
C        0.080086577   0.914518402  -0.010318199
C        0.337621299   0.914419359  -0.008145822
C        0.594227673   0.925878410  -0.008688997
C        0.833708134   0.925046359  -0.009242955
O        0.482595763   0.808741460   0.213013152
O        0.592236492   0.944952627   0.215740104
K_POINTS automatic 
  16 16 1   0 0 0 

