 &CONTROL
                 calculation = 'bands' ,
                      outdir = './tmp/' ,
                  pseudo_dir = '/home/deleted/pseudo_psl' ,
                      prefix = 'GCl_ip' ,
                   verbosity = 'high' ,
               etot_conv_thr = 1.0D-5 ,
               forc_conv_thr = 4.0D-4 ,
                       nstep = 1000 ,
                    dipfield = .true. ,
 /
 &SYSTEM
                       ibrav = 4,
                           A = 9.88 ,
                           C = 15 ,
                         nat = 34,
                        ntyp = 4,
                     ecutwfc = 40.424239707 ,
                     ecutrho = 404.24239707 ,
                 occupations = 'tetrahedra' ,
                     degauss = 0.01 ,
				   input_dft = 'vdW-DF' ,
    nspin = 2 ,
    starting_magnetization(1) = 0.5,
    starting_magnetization(2) = 0.5,
    starting_magnetization(3) = 0.5,
 /
 &ELECTRONS
            electron_maxstep = 50001,
                    conv_thr = 1.0D-6 ,
                 mixing_mode = 'local-TF' ,
                 mixing_beta = 0.5 ,
 /
ATOMIC_SPECIES
    C   12.01100  C.revpbe-n-kjpaw_psl.0.1.UPF 
   Cl   35.45200  Cl.revpbe-n-kjpaw_psl.0.3.0.UPF 
    O   15.99940  O.revpbe-n-kjpaw_psl.0.1.UPF 
    H   1.008000  H.revpbe-kjpaw_psl.0.1.UPF
ATOMIC_POSITIONS (crystal)
C        0.002082866   0.002489871   0.000794914
C        0.254598485   0.008576148   0.000561919
C        0.500821619   0.002182356  -0.001163248
C        0.748751601  -0.002822010  -0.001066830
C       -0.001160331   0.249899766   0.000061251
C        0.084614556   0.169896851  -0.000208582
C        0.253204071   0.257702058  -0.001180416
C        0.337707398   0.174913192  -0.000076410
C        0.504927898   0.257422356   0.000679651
C        0.585677429   0.169566762   0.000539885
C        0.751457057   0.249804353   0.001338379
C        0.831970662   0.163509508   0.000366553
C        0.001298483   0.502165017   0.001596695
C        0.079446536   0.416447660  -0.000470659
C        0.243724050   0.501531158  -0.003438909
C        0.323964015   0.422283185  -0.003671778
C        0.598521001   0.421988978   0.001792689
C        0.757984078   0.501379275   0.003200631
C        0.837371482   0.416362377   0.002762870
C        0.007124197   0.755863895   0.002812317
C        0.085390771   0.670178444   0.001503869
C        0.249234919   0.755830242  -0.001319160
C        0.328401043   0.670819803  -0.004620377
C        0.487811611   0.750044906  -0.006199469
Cl       0.543374895   0.586949910  -0.003348510
C        0.762570576   0.750215207   0.000551384
C        0.842691318   0.670842897   0.002943662
C        0.087751636   0.922364222   0.001561220
C        0.335102521   0.922246012  -0.000643802
C        0.581564873   0.914438550  -0.002912597
C        0.833507661   0.914734527   0.000029468
O        0.522798610   0.709080091   0.205556456
O        0.419891641   0.766743771   0.211202454
H        0.532147968   0.682618866   0.267612442
K_POINTS automatic 
  20 20 1   0 0 0 

