 &CONTROL
                 calculation = 'scf' ,
                      outdir = './tmp/' ,
                  pseudo_dir = '/home/deleted/pseudo_psl' ,
                      prefix = 'GI_op' ,
                   verbosity = 'high' ,
               etot_conv_thr = 1.0D-5 ,
               forc_conv_thr = 4.0D-4 ,
                       nstep = 1000 ,
                    dipfield = .true. ,
 /
 &SYSTEM
                       ibrav = 4,
                           A = 9.88 ,
                           C = 15 ,
                         nat = 33,
                        ntyp = 3,
                     ecutwfc = 40.424239707 ,
                     ecutrho = 404.24239707 ,
                 occupations = 'smearing' ,
                     degauss = 0.01 ,
				   input_dft = 'vdW-DF' ,
 /
 &ELECTRONS
            electron_maxstep = 50001,
                    conv_thr = 1.0D-6 ,
                 mixing_mode = 'local-TF' ,
                 mixing_beta = 0.5 ,
 /
ATOMIC_SPECIES
    C   12.01100  C.revpbe-n-kjpaw_psl.0.1.UPF 
    I  126.90400  I.revpbe-n-kjpaw_psl.0.2.UPF 
    O   15.99940  O.revpbe-n-kjpaw_psl.0.1.UPF 
ATOMIC_POSITIONS crystal 
C       -0.001925913  -0.001060176  -0.004904824
C        0.244326562  -0.011346878  -0.004470582
C        0.500865737  -0.001060176  -0.004904824
C        0.757031071   0.014062142  -0.005436986
C        0.007092885   0.255542816  -0.004865740
C        0.084477740   0.166164109  -0.004672776
C        0.251422166   0.242894351  -0.004688351
C        0.325485287   0.150970575  -0.004376673
C        0.491472185   0.242894351  -0.004688351
C        0.581686367   0.166164109  -0.004672776
C        0.748449930   0.255542816  -0.004865740
C        0.838206737   0.176413476  -0.004876781
C        0.000451445   0.500902891  -0.005381695
C        0.095607515   0.420338861  -0.005259849
C        0.273199306   0.498108452  -0.005578722
C        0.351361415   0.404999881  -0.005340438
C        0.553638466   0.404999881  -0.005340438
C        0.724909146   0.498108452  -0.005578722
C        0.824731343   0.420338861  -0.005259849
C       -0.013036808   0.744761488  -0.005387962
C        0.082111286   0.664222573  -0.005383367
C        0.257798296   0.744761488  -0.005387962
C        0.357575414   0.666958171  -0.005889508
C        0.528755118   0.760095850  -0.006125941
I        0.637695168   0.775390336   0.253457340
C        0.731340731   0.760095850  -0.006125941
C        0.809382757   0.666958171  -0.005889508
C        0.075446222   0.909546707  -0.004823205
C        0.334100484   0.909546707  -0.004823205
C        0.591046625   0.922173133  -0.005674888
C        0.831126508   0.922173133  -0.005674888
O        0.457299159   0.414598318   0.200272427
O        0.500202977   0.500405954   0.269287392
K_POINTS automatic 
  16 16 1   0 0 0 

