 &CONTROL
                 calculation = 'nscf' ,
                      outdir = './tmp/' ,
                  pseudo_dir = '/home/deleted/pseudo_psl' ,
                      prefix = 'GI_op' ,
                   verbosity = 'high' ,
               etot_conv_thr = 1.0D-5 ,
               forc_conv_thr = 4.0D-4 ,
                       nstep = 1000 ,
                    dipfield = .true. ,
 /
 &SYSTEM
                       ibrav = 4,
                           A = 9.88 ,
                           C = 15 ,
                         nat = 34,
                        ntyp = 4,
                     ecutwfc = 40.424239707 ,
                     ecutrho = 404.24239707 ,
                 occupations = 'tetrahedra' ,
                     degauss = 0.01 ,
				   input_dft = 'vdW-DF' ,
 /
 &ELECTRONS
            electron_maxstep = 50001,
                    conv_thr = 1.0D-6 ,
                 mixing_mode = 'local-TF' ,
                 mixing_beta = 0.5 ,
 /
ATOMIC_SPECIES
    C   12.01100  C.revpbe-n-kjpaw_psl.0.1.UPF 
    I  126.90400  I.revpbe-n-kjpaw_psl.0.2.UPF 
    O   15.99940  O.revpbe-n-kjpaw_psl.0.1.UPF 
    H   1.008000  H.revpbe-kjpaw_psl.0.1.UPF
ATOMIC_POSITIONS crystal 
C       -0.003130771  -0.004258093  -0.004801771
C        0.243061330  -0.014628337  -0.005209309
C        0.499831583  -0.004134282  -0.006082829
C        0.756354489   0.011595437  -0.005536553
C        0.006348861   0.252660267  -0.004722114
C        0.083459603   0.163127997  -0.004668759
C        0.250395353   0.239682144  -0.004917910
C        0.324158876   0.147389648  -0.005171905
C        0.490246112   0.239723296  -0.005478350
C        0.580676180   0.163267555  -0.005600845
C        0.747297675   0.252706641  -0.005246376
C        0.837277724   0.173581770  -0.005050661
C       -0.000513591   0.498067663  -0.005119314
C        0.095007565   0.417365263  -0.004967953
C        0.272311335   0.494868529  -0.005311024
C        0.350839956   0.401667032  -0.005247594
C        0.551829411   0.401713718  -0.005538728
C        0.723557253   0.495009548  -0.005610711
C        0.823301235   0.417402825  -0.005256256
C       -0.014730224   0.741492266  -0.005255909
C        0.080732622   0.660753210  -0.005252621
C        0.256974920   0.741461532  -0.005570756
C        0.356786310   0.663769340  -0.005738385
C        0.528835003   0.757115028  -0.006018466
I        0.568373141   0.593101938   0.248201231
C        0.729601945   0.757265687  -0.005583473
C        0.807942504   0.663875068  -0.005571417
C        0.073960530   0.906208708  -0.004983301
C        0.333086953   0.906272022  -0.005742131
C        0.590311538   0.919297001  -0.006252255
C        0.829969004   0.919241426  -0.005233706
O        0.519294526   0.865747582   0.222091534
O        0.644911207   0.830727801   0.218464575
H        0.480837809   0.844171679   0.160312399
K_POINTS automatic 
  20 20 1   0 0 0 

