 &CONTROL
                 calculation = 'relax' ,
                      outdir = './tmp/' ,
                  pseudo_dir = '/home/deleted/pseudo_psl' ,
                      prefix = 'GF_ip' ,
                   verbosity = 'high' ,
               etot_conv_thr = 1.0D-5 ,
               forc_conv_thr = 4.0D-4 ,
                       nstep = 1000 ,
                    dipfield = .true. ,
 /
 &SYSTEM
                       ibrav = 4,
                           A = 9.88 ,
                           C = 15 ,
                         nat = 34,
                        ntyp = 4,
                     ecutwfc = 40.424239707 ,
                     ecutrho = 404.24239707 ,
                 occupations = 'smearing' ,
                     degauss = 0.01 ,
				   input_dft = 'vdW-DF' ,
 /
 &ELECTRONS
            electron_maxstep = 50001,
                    conv_thr = 1.0D-6 ,
                 mixing_mode = 'local-TF' ,
                 mixing_beta = 0.5 ,
 /
 &IONS
                ion_dynamics = 'bfgs' ,
 /
ATOMIC_SPECIES
    C   12.01100  C.revpbe-n-kjpaw_psl.0.1.UPF 
    F   18.99800  F.revpbe-n-kjpaw_psl.0.1.UPF 
    O   15.99940  O.revpbe-n-kjpaw_psl.0.1.UPF 
    H   1.008000  H.revpbe-kjpaw_psl.0.1.UPF
ATOMIC_POSITIONS crystal 
C       -0.029821550  -0.030760337  -0.000195433
C        0.217487011  -0.035441672   0.008435174
C        0.469324234  -0.030053450   0.010938110
C        0.718690827  -0.028828479  -0.001417676
C       -0.029054561   0.220549763  -0.003253952
C        0.052941113   0.136519044   0.002909432
C        0.220974906   0.217900869   0.004848094
C        0.298911113   0.128728734   0.006676232
C        0.464612875   0.217228341   0.003530738
C        0.550938744   0.136133789   0.003198508
C        0.716973575   0.220161762  -0.000673545
C        0.802665076   0.137926310  -0.002987089
C       -0.032097620   0.468050349  -0.001648946
C        0.056686350   0.386111309  -0.000719767
C        0.231113719   0.469432648   0.007794768
C        0.312367177   0.379727961   0.004491464
C        0.535622312   0.379940276  -0.001830629
C        0.704672112   0.467902760  -0.008812870
C        0.796340802   0.385998200  -0.003942075
C       -0.033508788   0.717242590  -0.001554363
C        0.050744368   0.633610779   0.003029695
C        0.217894888   0.714952008   0.012208992
C        0.302377473   0.634006933   0.019549361
C        0.468118511   0.726299782   0.047795918
F        0.593879656   0.662167019  -0.077476159
C        0.735058588   0.730703317  -0.034533348
C        0.800133826   0.636723736  -0.015839716
C        0.050211190   0.882976295   0.002184877
C        0.301840284   0.883267954   0.013458605
C        0.555891615   0.890968004   0.014875088
C        0.805199348   0.889039978  -0.012231612
O        0.525737901   0.672444077   0.100097357
O        0.903479655   1.135244003   0.173822519
H        0.890516554   1.105420295   0.236625353
K_POINTS automatic 
  4 4 1   0 0 0 

