 &CONTROL
                 calculation = 'scf' ,
                      outdir = './tmp/' ,
                  pseudo_dir = '/home/deleted/pseudo_psl' ,
                      prefix = 'GF_ip' ,
                   verbosity = 'high' ,
               etot_conv_thr = 1.0D-5 ,
               forc_conv_thr = 4.0D-4 ,
                       nstep = 1000 ,
                    dipfield = .true. ,
 /
 &SYSTEM
                       ibrav = 4,
                           A = 9.88 ,
                           C = 15 ,
                         nat = 34,
                        ntyp = 4,
                     ecutwfc = 40.424239707 ,
                     ecutrho = 404.24239707 ,
                 occupations = 'smearing' ,
                     degauss = 0.01 ,
				   input_dft = 'vdW-DF' ,
 /
 &ELECTRONS
            electron_maxstep = 50001,
                    conv_thr = 1.0D-6 ,
                 mixing_mode = 'local-TF' ,
                 mixing_beta = 0.5 ,
 /
ATOMIC_SPECIES
    C   12.01100  C.revpbe-n-kjpaw_psl.0.1.UPF 
    F   18.99800  F.revpbe-n-kjpaw_psl.0.1.UPF 
    O   15.99940  O.revpbe-n-kjpaw_psl.0.1.UPF 
    H   1.008000  H.revpbe-kjpaw_psl.0.1.UPF
ATOMIC_POSITIONS crystal 
C       -0.041497389  -0.033815033   0.009642074
C        0.208088631  -0.035300937   0.011939353
C        0.459576868  -0.029579721   0.012747585
C        0.708699511  -0.028551256   0.004605509
C       -0.040859262   0.221874968   0.005783107
C        0.041608509   0.136335861   0.037053706
C        0.214991072   0.220026602   0.013850306
C        0.290047337   0.128956197   0.010406674
C        0.454944547   0.217207877   0.003445164
C        0.541149466   0.136201438   0.003090426
C        0.707304123   0.221109385  -0.001130212
C        0.793761003   0.139339641   0.001121952
C       -0.042514501   0.468308769  -0.002382589
C        0.045896454   0.385549383   0.002007028
C        0.221496695   0.469857448   0.010473454
C        0.304159633   0.378446903   0.007652946
C        0.525538178   0.380389771  -0.002521575
C        0.693581613   0.468200037  -0.010131204
C        0.786624191   0.386605787  -0.005016545
C       -0.043569568   0.717146683  -0.001761078
C        0.041484273   0.634149586   0.002266182
C        0.207447595   0.714775374   0.012676979
C        0.292218508   0.632476165   0.020991054
C        0.457957738   0.725879354   0.050449897
F        0.584511115   0.666513834  -0.075261612
C        0.725973305   0.732536967  -0.032661113
C        0.790256288   0.637372504  -0.016407985
C        0.039641572   0.882551993   0.006301947
C        0.292127382   0.883224595   0.014662528
C        0.546994516   0.891667813   0.018795878
C        0.796834603   0.889809736  -0.006562574
O        0.514698714   0.673069735   0.103976187
O        1.027713259   1.141131642   0.136586399
H        1.080037306   1.088825847   0.162663256
K_POINTS automatic 
  16 16 1   0 0 0 

