 &CONTROL
                 calculation = 'scf' ,
                      outdir = './tmp/' ,
                  pseudo_dir = '/home/deleted/pseudo_psl' ,
                      prefix = 'GBr_op' ,
                   verbosity = 'high' ,
               etot_conv_thr = 1.0D-5 ,
               forc_conv_thr = 4.0D-4 ,
                       nstep = 1000 ,
                    dipfield = .true. ,
 /
 &SYSTEM
                       ibrav = 4,
                           A = 9.88 ,
                           C = 15 ,
                         nat = 34,
                        ntyp = 4,
                     ecutwfc = 40.424239707 ,
                     ecutrho = 404.24239707 ,
                 occupations = 'smearing' ,
                     degauss = 0.01 ,
				   input_dft = 'vdW-DF' ,
 /
 &ELECTRONS
            electron_maxstep = 50001,
                    conv_thr = 1.0D-6 ,
                 mixing_mode = 'local-TF' ,
                 mixing_beta = 0.5 ,
 /
ATOMIC_SPECIES
    C   12.01100  C.revpbe-n-kjpaw_psl.0.1.UPF 
   Br   79.90350  Br.revpbe-n-kjpaw_psl.0.2.UPF 
    O   15.99940  O.revpbe-n-kjpaw_psl.0.1.UPF 
    H   1.008000  H.revpbe-kjpaw_psl.0.1.UPF
ATOMIC_POSITIONS crystal 
C        0.002441536   0.004360842   0.000523016
C        0.248408750  -0.005977389   0.000811280
C        0.504759243   0.003939873   0.001634203
C        0.761069931   0.018271150   0.004085487
C        0.010592484   0.260533895   0.002651206
C        0.088627175   0.171316904   0.002530919
C        0.255322541   0.247979402   0.003051817
C        0.329906298   0.157024868   0.002158766
C        0.496012494   0.248226093   0.002398989
C        0.585898379   0.171106018   0.002872953
C        0.753196804   0.260502145   0.003067570
C        0.842901609   0.182153278   0.003673355
C        0.004446596   0.505782284  -0.000046371
C        0.099286906   0.425781918   0.000579301
C        0.275889122   0.503881086  -0.000738147
C        0.355320465   0.411157824   0.003583814
C        0.559073659   0.410642807   0.001726421
C        0.730645255   0.503842039  -0.000018845
C        0.829733167   0.425523462   0.001157898
C       -0.008401620   0.749969972  -0.001261205
C        0.086471596   0.669881644  -0.001298510
C        0.261253280   0.750106282  -0.001556996
C        0.360403694   0.671704194  -0.002296829
C        0.531964131   0.764814772  -0.001965285
Br       0.469329903   0.490408213   0.191680854
C        0.735774043   0.765246996  -0.001400165
C        0.814673495   0.671752606  -0.001560976
C        0.080120150   0.915258169  -0.000150198
C        0.338001872   0.915049692   0.000075202
C        0.594424298   0.926433729   0.001285745
C        0.835543819   0.927404059  -0.000766758
O        0.748714926   0.842888242   0.183477950
O        0.725274066   0.965724803   0.174922594
H        0.642436160   0.742733793   0.185581635
K_POINTS automatic 
  16 16 1   0 0 0 

