 &CONTROL
                 calculation = 'relax' ,
                      outdir = './tmp/' ,
                  pseudo_dir = '/home/deleted/pseudo_psl' ,
                      prefix = 'GBr_op' ,
                   verbosity = 'high' ,
               etot_conv_thr = 1.0D-5 ,
               forc_conv_thr = 4.0D-4 ,
                       nstep = 1000 ,
                    dipfield = .true. ,
 /
 &SYSTEM
                       ibrav = 4,
                           A = 9.88 ,
                           C = 15 ,
                         nat = 34,
                        ntyp = 4,
                     ecutwfc = 40.424239707 ,
                     ecutrho = 404.24239707 ,
                 occupations = 'smearing' ,
                     degauss = 0.01 ,
				   input_dft = 'vdW-DF' ,
 /
 &ELECTRONS
            electron_maxstep = 50001,
                    conv_thr = 1.0D-6 ,
                 mixing_mode = 'local-TF' ,
                 mixing_beta = 0.5 ,
 /
 &IONS
                ion_dynamics = 'bfgs' ,
 /
ATOMIC_SPECIES
    C   12.01100  C.revpbe-n-kjpaw_psl.0.1.UPF 
   Br   79.90350  Br.revpbe-n-kjpaw_psl.0.2.UPF 
    O   15.99940  O.revpbe-n-kjpaw_psl.0.1.UPF 
    H   1.008000  H.revpbe-kjpaw_psl.0.1.UPF
ATOMIC_POSITIONS crystal 
C       -0.001977962  -0.001098622  -0.004809507
C        0.244267718  -0.011464563  -0.004591097
C        0.500879340  -0.001098622  -0.004809507
C        0.757071597   0.014143193  -0.005272287
C        0.007076151   0.255554208  -0.004492263
C        0.084385397   0.166099473  -0.004568046
C        0.251346524   0.242810629  -0.004676912
C        0.325442056   0.150884114  -0.004585555
C        0.491464105   0.242810629  -0.004676912
C        0.581714075   0.166099473  -0.004568046
C        0.748478058   0.255554208  -0.004492263
C        0.838228894   0.176457789  -0.004579984
C        0.000429590   0.500859180  -0.004788328
C        0.095565479   0.420339140  -0.004711250
C        0.273172091   0.498103154  -0.005070829
C        0.351180075   0.404899753  -0.004980945
C        0.553719676   0.404899753  -0.004980945
C        0.724931064   0.498103154  -0.005070829
C        0.824773662   0.420339140  -0.004711250
C       -0.013089607   0.744694268  -0.004959610
C        0.082105572   0.664211145  -0.004906159
C        0.257783876   0.744694268  -0.004959610
C        0.357612342   0.666881295  -0.005289501
C        0.528851063   0.760046097  -0.005567046
Br       0.542295238   0.584590478   0.226258572
C        0.731195034   0.760046097  -0.005567046
C        0.809268952   0.666881295  -0.005289501
C        0.075392194   0.909474613  -0.004729183
C        0.334082418   0.909474613  -0.004729183
C        0.591099127   0.922208300  -0.005383177
C        0.831109172   0.922208300  -0.005383177
O        0.669606483   0.839212966   0.195211833
O        0.717207209   0.934414416   0.259062877
H        0.782849565   0.842092331   0.227137354
K_POINTS automatic 
  4 4 1   0 0 0 

