 &CONTROL
                 calculation = 'bands' ,
                      outdir = './tmp/' ,
                  pseudo_dir = '/home/deleted/pseudo_psl' ,
                      prefix = 'GF_ip' ,
                   verbosity = 'high' ,
               etot_conv_thr = 1.0D-5 ,
               forc_conv_thr = 4.0D-4 ,
                       nstep = 1000 ,
                    dipfield = .true. ,
 /
 &SYSTEM
                       ibrav = 4,
                           A = 9.88 ,
                           C = 15 ,
                         nat = 33,
                        ntyp = 3,
                     ecutwfc = 40.424239707 ,
                     ecutrho = 404.24239707 ,
                 occupations = 'tetrahedra' ,
                     degauss = 0.01 ,
				   input_dft = 'vdW-DF' ,
 /
 &ELECTRONS
            electron_maxstep = 50001,
                    conv_thr = 1.0D-6 ,
                 mixing_mode = 'local-TF' ,
                 mixing_beta = 0.5 ,
 /
ATOMIC_SPECIES
    C   12.01100  C.revpbe-n-kjpaw_psl.0.1.UPF 
    F   18.99800  F.revpbe-n-kjpaw_psl.0.1.UPF 
    O   15.99940  O.revpbe-n-kjpaw_psl.0.1.UPF 
ATOMIC_POSITIONS crystal 
C       -0.011760145  -0.009148367   0.001438465
C        0.234954564  -0.013872461   0.008453350
C        0.486179867  -0.009146058   0.015282640
C        0.736901934  -0.007871927   0.007381597
C       -0.010668366   0.241637595   0.004200838
C        0.071599388   0.157569474   0.006079824
C        0.239256446   0.238933825   0.007294465
C        0.316540013   0.149736070   0.007802324
C        0.482477015   0.238343824   0.006607862
C        0.568813351   0.157175040   0.007659021
C        0.735164890   0.241588250   0.006275608
C        0.820523579   0.158622339   0.005131185
C       -0.013718520   0.489552821   0.004513900
C        0.075471527   0.407603199   0.007103398
C        0.250003454   0.490466938   0.014859535
C        0.331060064   0.401248503   0.009200958
C        0.553429556   0.400986888   0.002803640
C        0.722718188   0.489305304  -0.004305733
C        0.814622519   0.407474253   0.002061625
C       -0.015275611   0.738254989  -0.000539248
C        0.069246235   0.655147533   0.005564474
C        0.236559190   0.737588068   0.014435014
C        0.321670091   0.657100558   0.026431582
C        0.481874823   0.751369931   0.053933922
F        0.607482070   0.680703811  -0.068417661
C        0.751812569   0.751505258  -0.029281785
C        0.818175227   0.657635492  -0.013030514
C        0.068044132   0.904283499   0.002464118
C        0.319261966   0.904621539   0.014566510
C        0.572527482   0.911464769   0.025467710
C        0.822264613   0.910695036  -0.007646385
O        0.529269430   0.679327833   0.110649845
O        0.680185118   0.763429515   0.145557915
K_POINTS crystal_b 
4
0.0000000000    0.0000000000    0.0000000000 17
0.0000000000    0.5000000000    0.0000000000 10
0.3333333333    0.3333333333    0.0000000000 20
0.0000000000    0.0000000000    0.0000000000 1

