 &CONTROL
                 calculation = 'bands' ,
                      outdir = './tmp/' ,
                  pseudo_dir = '/home/deleted/pseudo_psl' ,
                      prefix = 'GF_op' ,
                   verbosity = 'high' ,
               etot_conv_thr = 1.0D-5 ,
               forc_conv_thr = 4.0D-4 ,
                       nstep = 1000 ,
                    dipfield = .true. ,
 /
 &SYSTEM
                       ibrav = 4,
                           A = 9.88 ,
                           C = 15 ,
                         nat = 34,
                        ntyp = 4,
                     ecutwfc = 40.424239707 ,
                     ecutrho = 404.24239707 ,
                 occupations = 'tetrahedra' ,
                     degauss = 0.01 ,
				   input_dft = 'vdW-DF' ,
 /
 &ELECTRONS
            electron_maxstep = 50001,
                    conv_thr = 1.0D-6 ,
                 mixing_mode = 'local-TF' ,
                 mixing_beta = 0.5 ,
 /
ATOMIC_SPECIES
    C   12.01100  C.revpbe-n-kjpaw_psl.0.1.UPF 
    F   18.99800  F.revpbe-n-kjpaw_psl.0.1.UPF 
    O   15.99940  O.revpbe-n-kjpaw_psl.0.1.UPF 
	H   1.00800   H.revpbe-kjpaw_psl.0.1.UPF
ATOMIC_POSITIONS crystal 
C       -0.031298321  -0.028711033   0.006732134
C        0.218236654  -0.030244435   0.008880249
C        0.469718856  -0.024530239   0.009643969
C        0.718864507  -0.023470029   0.001630553
C       -0.030707211   0.226967496   0.002656947
C        0.051940422   0.141590985   0.033884598
C        0.225200036   0.225162383   0.010497086
C        0.300193184   0.134023220   0.007252940
C        0.465079399   0.222276490   0.000292821
C        0.551280328   0.141264414  -0.000043086
C        0.717427585   0.226182933  -0.004245936
C        0.803915751   0.144427601  -0.001922573
C       -0.032397089   0.473377793  -0.005546108
C        0.056052680   0.390640532  -0.001219341
C        0.231692602   0.474949290   0.007202613
C        0.314469752   0.383583254   0.004285558
C        0.535584419   0.385467537  -0.005677204
C        0.703669352   0.473300097  -0.013228895
C        0.796714926   0.391680651  -0.008152184
C       -0.033420998   0.722226919  -0.004703099
C        0.051620676   0.639204414  -0.000819751
C        0.217593249   0.719823618   0.009569644
C        0.302372580   0.637530510   0.017858135
C        0.468066161   0.730917636   0.047402864
F        0.594788950   0.671808859  -0.078404081
C        0.736183638   0.737694163  -0.035701097
C        0.800399243   0.642474625  -0.019414122
C        0.049791676   0.887619834   0.003382044
C        0.302270957   0.888275914   0.011536163
C        0.557152886   0.896734191   0.015784810
C        0.807053940   0.894933046  -0.009537072
O        1.038652562   1.146781010   0.133438976
O        0.524694300   0.678044477   0.100972312
H        1.097285780   1.100992236   0.159413024
K_POINTS crystal_b 
4
0.0000000000    0.0000000000    0.0000000000 17
0.0000000000    0.5000000000    0.0000000000 10
0.3333333333    0.3333333333    0.0000000000 20
0.0000000000    0.0000000000    0.0000000000 1

