 &CONTROL
                 calculation = 'scf' ,
                      outdir = './tmp/' ,
                  pseudo_dir = '/home/deleted/pseudo_psl' ,
                      prefix = 'GI_ip' ,
                   verbosity = 'high' ,
               etot_conv_thr = 1.0D-5 ,
               forc_conv_thr = 4.0D-4 ,
                       nstep = 1000 ,
                    dipfield = .true. ,
 /
 &SYSTEM
                       ibrav = 4,
                           A = 9.88 ,
                           C = 15 ,
                         nat = 34,
                        ntyp = 4,
                     ecutwfc = 40.424239707 ,
                     ecutrho = 404.24239707 ,
                 occupations = 'smearing' ,
                     degauss = 0.01 ,
				   input_dft = 'vdW-DF' ,
 /
 &ELECTRONS
            electron_maxstep = 50001,
                    conv_thr = 1.0D-6 ,
                 mixing_mode = 'local-TF' ,
                 mixing_beta = 0.5 ,
 /
ATOMIC_SPECIES
    C   12.01100  C.revpbe-n-kjpaw_psl.0.1.UPF 
    I  126.90400  I.revpbe-n-kjpaw_psl.0.2.UPF 
    O   15.99940  O.revpbe-n-kjpaw_psl.0.1.UPF 
    H   1.008000  H.revpbe-kjpaw_psl.0.1.UPF
ATOMIC_POSITIONS crystal 
C       -0.001204075   0.003763716   0.004715112
C        0.251399606   0.010872137   0.008232831
C        0.496921345   0.003519592   0.004541159
C        0.744879012  -0.002016150  -0.004883249
C       -0.005595740   0.250131767   0.010990285
C        0.080432384   0.170619514   0.004130983
C        0.247112815   0.257383577  -0.007492501
C        0.333906714   0.176060514  -0.005330906
C        0.502157634   0.257224400  -0.006412920
C        0.582112848   0.170383392   0.004853870
C        0.747586772   0.250032133   0.011851757
C        0.827604388   0.163293027   0.008325813
C       -0.002536979   0.502909632   0.025623512
C        0.075028115   0.416819687   0.017427968
C        0.236518483   0.501797999   0.001023096
C        0.311521664   0.420030692  -0.018482394
C        0.599889956   0.419954954  -0.015336303
C        0.756635772   0.501665793   0.003873393
C        0.833537054   0.416707309   0.018934380
C        0.003890459   0.757447542   0.019141343
C        0.081573367   0.671234690   0.025894963
C        0.245313896   0.757232977   0.017949813
C        0.321694914   0.672153174   0.001535819
C        0.479029194   0.753739504  -0.016815150
I        0.539870271   0.587282115  -0.059322017
C        0.766831039   0.754064282  -0.015174732
C        0.841900618   0.672353051   0.004039717
C        0.084521797   0.924021289   0.011838176
C        0.331289829   0.923998437   0.011415307
C        0.576958990   0.916911605  -0.006735634
C        0.832005760   0.916940681  -0.006252905
O        0.415506917   0.558217451   0.173820157
O        0.559198477   0.612946929   0.123821046
H        0.434910042   0.653787010   0.204488062
K_POINTS automatic 
  16 16 1   0 0 0 

