 &CONTROL
                 calculation = 'scf' ,
                      outdir = './tmp/' ,
                  pseudo_dir = '/home/deleted/pseudo_psl' ,
                      prefix = 'GBr_op' ,
                   verbosity = 'high' ,
               etot_conv_thr = 1.0D-5 ,
               forc_conv_thr = 4.0D-4 ,
                       nstep = 1000 ,
                    dipfield = .true. ,
 /
 &SYSTEM
                       ibrav = 4,
                           A = 9.88 ,
                           C = 15 ,
                         nat = 32,
                        ntyp = 3,
                     ecutwfc = 40.424239707 ,
                     ecutrho = 404.24239707 ,
                 occupations = 'smearing' ,
                     degauss = 0.01 ,
				   input_dft = 'vdW-DF' ,
    nspin = 2 ,
    starting_magnetization(1) = 0.5,
    starting_magnetization(2) = 0.5,
    starting_magnetization(3) = 0.5,
 /
 &ELECTRONS
            electron_maxstep = 50001,
                    conv_thr = 1.0D-6 ,
                 mixing_mode = 'local-TF' ,
                 mixing_beta = 0.5 ,
 /
ATOMIC_SPECIES
    C   12.01100  C.revpbe-n-kjpaw_psl.0.1.UPF 
   Br   79.90350  Br.revpbe-n-kjpaw_psl.0.2.UPF 
    O   15.99940  O.revpbe-n-kjpaw_psl.0.1.UPF 
ATOMIC_POSITIONS (crystal)
C       -0.008097500  -0.004010891  -0.005816824
C        0.238100518  -0.014533716  -0.005316044
C        0.494750713  -0.004095430  -0.005235605
C        0.750922486   0.011315073  -0.005684055
C        0.001031163   0.252743189  -0.005227694
C        0.078365622   0.163268328  -0.005195237
C        0.245363642   0.239980781  -0.005026899
C        0.319251838   0.147842563  -0.004791954
C        0.485216503   0.239876644  -0.004824825
C        0.575488327   0.163170868  -0.004820624
C        0.742286987   0.252710268  -0.004965784
C        0.832149794   0.173719567  -0.005122256
C       -0.005697331   0.497968111  -0.005826682
C        0.089622370   0.417522952  -0.005655921
C        0.267475236   0.495389769  -0.006070168
C        0.345802806   0.402090061  -0.005553790
C        0.546884965   0.402037985  -0.005471540
C        0.718393993   0.495262806  -0.006001383
C        0.818450478   0.417524611  -0.005437589
C       -0.019465345   0.741724158  -0.006460608
C        0.075945579   0.661252418  -0.006296361
C        0.251799252   0.741631830  -0.006346207
C        0.351601181   0.663919754  -0.006782595
C        0.523547316   0.757052486  -0.006680340
Br       0.681356650   0.717472671   0.239976092
C        0.724464645   0.757228780  -0.007840998
C        0.802756494   0.664049881  -0.006957322
C        0.069177825   0.906484509  -0.005930202
C        0.327936369   0.906470937  -0.005646447
C        0.585075236   0.919307644  -0.005847941
C        0.824928919   0.919275575  -0.006598464
O        0.515113262   0.644345823   0.166789597
K_POINTS automatic 
  16 16 1   0 0 0 

