 &CONTROL
                 calculation = 'nscf' ,
                      outdir = './tmp/' ,
                  pseudo_dir = '/home/deleted/pseudo_psl' ,
                      prefix = 'MVG_tc' ,
                    dipfield = .true. ,
                   verbosity = 'high',
                       nstep = 1000,
               forc_conv_thr = 4.0D-4,
               etot_conv_thr = 1.0D-5
 /
 &SYSTEM
                       ibrav = 4,
                           A = 9.88 ,
                           C = 15 ,
                         nat = 32,
                        ntyp = 2,
                     ecutwfc = 40.424239707 ,
                     ecutrho = 404.24239707 ,
                 occupations = 'tetrahedra' ,
                     degauss = 0.01 ,
				   input_dft = 'vdW-DF' ,
    nspin = 2 ,
    starting_magnetization(1) = 0.5,
	starting_magnetization(2) = 0.5,
 /
 &ELECTRONS
            electron_maxstep = 50001,
                    conv_thr = 1.0D-6 ,
                 mixing_mode = 'local-TF' ,
                 mixing_beta = 0.5 ,
 /
 &IONS
                ion_dynamics = 'bfgs' ,
 /
ATOMIC_SPECIES
    C   12.01100  C.revpbe-n-kjpaw_psl.0.1.UPF 
    O   15.99940  O.revpbe-n-kjpaw_psl.0.1.UPF 
ATOMIC_POSITIONS crystal 
C       -0.000988595   0.004015517  -0.005680069
C        0.245588422  -0.001039016  -0.010072194
C        0.497215126   0.004064053  -0.005590630
C        0.750605784   0.009022520   0.004461561
C        0.001321768   0.255425318  -0.005989610
C        0.082594803   0.170653391  -0.008966055
C        0.250006084   0.251357233  -0.011824524
C        0.326965120   0.161725552  -0.012967924
C        0.493553762   0.251368974  -0.011890662
C        0.580262301   0.170680857  -0.008971266
C        0.746314096   0.255427320  -0.005981205
C        0.832438558   0.172662632  -0.003199516
C       -0.002206312   0.503407247  -0.003301811
C        0.087414951   0.420892316  -0.004150787
C        0.260574022   0.502329951  -0.001708723
C        0.340321299   0.413113816  -0.008649880
C        0.564981874   0.413109075  -0.008743703
C        0.733954083   0.502321348  -0.001869735
C        0.825667681   0.420888106  -0.004217696
C       -0.006090434   0.750732041  -0.003436904
C        0.079991672   0.667750254  -0.004875876
C        0.249059895   0.750738774  -0.003314680
C        0.336936641   0.671173758   0.005581111
C        0.500096714   0.761050892   0.018516636
C        0.594898249   0.697424452   0.058245919
C        0.753157090   0.760998249   0.018343749
C        0.826457936   0.671165328   0.005372036
C        0.078161498   0.916902830  -0.006562717
C        0.330960884   0.916905755  -0.006488904
C        0.582319468   0.923945349   0.005232143
C        0.833780642   0.923902183   0.005137894
O        0.556289359   0.619972813   0.127564021
K_POINTS automatic 
  20 20 1   0 0 0 

