 &CONTROL
                 calculation = 'nscf' ,
                      outdir = './tmp/' ,
                  pseudo_dir = '/home/deleted/pseudo_psl' ,
                      prefix = 'GI_ip' ,
                   verbosity = 'high' ,
               etot_conv_thr = 1.0D-5 ,
               forc_conv_thr = 4.0D-4 ,
                       nstep = 1000 ,
                    dipfield = .true. ,
 /
 &SYSTEM
                       ibrav = 4,
                           A = 9.88 ,
                           C = 15 ,
                         nat = 34,
                        ntyp = 4,
                     ecutwfc = 40.424239707 ,
                     ecutrho = 404.24239707 ,
                 occupations = 'tetrahedra' ,
                     degauss = 0.01 ,
				   input_dft = 'vdW-DF' ,
    nspin = 2 ,
    starting_magnetization(1) = 0.5,
    starting_magnetization(2) = 0.5,
    starting_magnetization(3) = 0.5,
 /
 &ELECTRONS
            electron_maxstep = 50001,
                    conv_thr = 1.0D-6 ,
                 mixing_mode = 'local-TF' ,
                 mixing_beta = 0.5 ,
 /
ATOMIC_SPECIES
    C   12.01100  C.revpbe-n-kjpaw_psl.0.1.UPF 
    I  126.90400  I.revpbe-n-kjpaw_psl.0.2.UPF 
    O   15.99940  O.revpbe-n-kjpaw_psl.0.1.UPF 
    H   1.008000  H.revpbe-kjpaw_psl.0.1.UPF
ATOMIC_POSITIONS (crystal)
C       -0.009645189   0.000174367   0.003523971
C        0.243139754   0.007451973   0.007418302
C        0.488659920   0.000369226   0.004129212
C        0.736928182  -0.005105864  -0.005621634
C       -0.013632710   0.246894397   0.011330783
C        0.072123836   0.167199266   0.003965486
C        0.239008943   0.253921380  -0.007104363
C        0.325797641   0.172642525  -0.006049318
C        0.493740637   0.253933132  -0.007907425
C        0.573925840   0.167374852   0.003558903
C        0.739495610   0.246933173   0.010703872
C        0.819475529   0.160065359   0.007727237
C       -0.010758863   0.499698584   0.025891810
C        0.067000514   0.413501994   0.018989657
C        0.228995937   0.498550464   0.004021315
C        0.304208910   0.417023882  -0.015424220
C        0.591815211   0.417101634  -0.017580160
C        0.748992647   0.498632217   0.001083615
C        0.825486473   0.413679893   0.017474813
C       -0.004382148   0.753891767   0.017358108
C        0.073261733   0.667829862   0.025757002
C        0.237228370   0.754058038   0.018894814
C        0.314209193   0.669086470   0.003970137
C        0.470928526   0.750647165  -0.015371518
I        0.530810055   0.583741587  -0.060775291
C        0.758809828   0.750583461  -0.017918607
C        0.834089230   0.668930148   0.001076330
C        0.076284100   0.920587471   0.010470360
C        0.323174600   0.920700369   0.011229809
C        0.568812677   0.913592896  -0.006761440
C        0.823509730   0.913465068  -0.007675347
O        0.510590365   0.551298439   0.134199607
O        0.654835745   0.603847731   0.181374357
H        0.627877861   0.516979997   0.222576060
K_POINTS automatic 
  20 20 1   0 0 0 

