 &CONTROL
                 calculation = 'nscf' ,
                      outdir = './tmp/' ,
                  pseudo_dir = '/home/deleted/pseudo_psl' ,
                      prefix = 'GI_op' ,
                   verbosity = 'high' ,
               etot_conv_thr = 1.0D-5 ,
               forc_conv_thr = 4.0D-4 ,
                       nstep = 1000 ,
                    dipfield = .true. ,
 /
 &SYSTEM
                       ibrav = 4,
                           A = 9.88 ,
                           C = 15 ,
                         nat = 34,
                        ntyp = 4,
                     ecutwfc = 40.424239707 ,
                     ecutrho = 404.24239707 ,
                 occupations = 'tetrahedra' ,
                     degauss = 0.01 ,
				   input_dft = 'vdW-DF' ,
 /
 &ELECTRONS
            electron_maxstep = 50001,
                    conv_thr = 1.0D-6 ,
                 mixing_mode = 'local-TF' ,
                 mixing_beta = 0.5 ,
 /
ATOMIC_SPECIES
    C   12.01100  C.revpbe-n-kjpaw_psl.0.1.UPF 
    I  126.90400  I.revpbe-n-kjpaw_psl.0.2.UPF 
    O   15.99940  O.revpbe-n-kjpaw_psl.0.1.UPF 
    H   1.008000  H.revpbe-kjpaw_psl.0.1.UPF
ATOMIC_POSITIONS crystal 
C       -0.001888185  -0.013831199  -0.004593719
C        0.244345864  -0.024239637  -0.004812745
C        0.500836159  -0.013759124  -0.006081241
C        0.757456352   0.001990914  -0.006375866
C        0.007306061   0.242924388  -0.004261485
C        0.084540838   0.153505398  -0.004110127
C        0.251495346   0.230058924  -0.003604718
C        0.325347412   0.137783858  -0.004161268
C        0.491416364   0.230031479  -0.004168993
C        0.581786175   0.153513051  -0.005087875
C        0.748405618   0.242928230  -0.004708983
C        0.838344338   0.163882689  -0.005410571
C        0.000635107   0.488438496  -0.003734648
C        0.095858549   0.407651644  -0.003671065
C        0.273078279   0.485313947  -0.003644453
C        0.351609387   0.392061015  -0.003369283
C        0.553315641   0.392036394  -0.003593463
C        0.724948710   0.485284773  -0.003573429
C        0.824534598   0.407617745  -0.003746016
C       -0.013331805   0.731914369  -0.004340011
C        0.082036250   0.651170785  -0.004343142
C        0.258026580   0.731902254  -0.005207500
C        0.357302637   0.654159033  -0.004643045
C        0.529442735   0.747512398  -0.004719974
I        0.550724163   0.830626488   0.227991323
C        0.731091764   0.747641110  -0.004489874
C        0.809455170   0.654230239  -0.003951758
C        0.075249847   0.896667266  -0.004528859
C        0.334264114   0.896661365  -0.005689727
C        0.591412171   0.909844723  -0.006192116
C        0.831147007   0.909709765  -0.005324450
O        0.719060924   1.031901145   0.212464992
O        0.358059328   0.819635962   0.215104297
H        0.555047425   0.823514594   0.344265396
K_POINTS automatic 
  20 20 1   0 0 0 

