 &CONTROL
                 calculation = 'bands' ,
                      outdir = './tmp/' ,
                  pseudo_dir = '/home/deleted/pseudo_psl' ,
                      prefix = 'GF_ip' ,
                   verbosity = 'high' ,
               etot_conv_thr = 1.0D-5 ,
               forc_conv_thr = 4.0D-4 ,
                       nstep = 1000 ,
                    dipfield = .true. ,
 /
 &SYSTEM
                       ibrav = 4,
                           A = 9.88 ,
                           C = 15 ,
                         nat = 34,
                        ntyp = 4,
                     ecutwfc = 40.424239707 ,
                     ecutrho = 404.24239707 ,
                 occupations = 'tetrahedra' ,
                     degauss = 0.01 ,
				   input_dft = 'vdW-DF' ,
 /
 &ELECTRONS
            electron_maxstep = 50001,
                    conv_thr = 1.0D-6 ,
                 mixing_mode = 'local-TF' ,
                 mixing_beta = 0.5 ,
 /
ATOMIC_SPECIES
    C   12.01100  C.revpbe-n-kjpaw_psl.0.1.UPF 
    F   18.99800  F.revpbe-n-kjpaw_psl.0.1.UPF 
    O   15.99940  O.revpbe-n-kjpaw_psl.0.1.UPF 
    H   1.008000  H.revpbe-kjpaw_psl.0.1.UPF
ATOMIC_POSITIONS crystal 
C        0.003772421  -0.000902650   0.007913317
C        0.251299248  -0.005613995   0.010606501
C        0.505308034  -0.001033325   0.014016392
C        0.760235331   0.006154597   0.008395707
C        0.008240937   0.251732058   0.017686169
C        0.088192805   0.164834525   0.017553819
C        0.252490711   0.241286495   0.023416598
C        0.334569965   0.160763365   0.015713180
C        0.503439450   0.245595074   0.014883768
C        0.589728765   0.165922891   0.014736428
C        0.755764985   0.251948680   0.014201121
C        0.843086346   0.171372550   0.014069094
C        0.006100550   0.500712901   0.012517947
C        0.095033819   0.420143285   0.017652112
C        0.260510684   0.501567434   0.021692089
C        0.343364188   0.410962034   0.045805034
C        0.581435150   0.407915810   0.007931653
C        0.749005615   0.499063078   0.005636364
C        0.837160547   0.417889168   0.011157125
C       -0.001588655   0.746633260   0.007855423
C        0.088258790   0.665781723   0.011097069
C        0.258021627   0.748220615   0.011855256
C        0.349135928   0.667088953   0.016218670
C        0.517957230   0.757256843   0.018847510
F        0.689738721   0.719137841  -0.106868461
C        0.748166230   0.755527694  -0.018379179
C        0.830630878   0.665511879   0.002495982
C        0.085850342   0.914190023   0.007575222
C        0.338966393   0.913871097   0.011718254
C        0.591396382   0.917774726   0.013091144
C        0.838920597   0.922264447  -0.000657124
O        0.494840490   0.480672087   0.000752790
O        0.368794137   0.433096580   0.141160707
H        0.374959303   0.344627374   0.165400378
K_POINTS crystal_b 
4
0.0000000000    0.0000000000    0.0000000000 17
0.0000000000    0.5000000000    0.0000000000 10
0.3333333333    0.3333333333    0.0000000000 20
0.0000000000    0.0000000000    0.0000000000 1

