 &CONTROL
                 calculation = 'scf' ,
                      outdir = './tmp_subs/' ,
                  pseudo_dir = '/home/deleted/pseudo_psl' ,
                      prefix = 'GCl_ip-subs' ,
                   verbosity = 'high' ,
               etot_conv_thr = 1.0D-5 ,
               forc_conv_thr = 4.0D-4 ,
                       nstep = 1000 ,
                    dipfield = .true. ,
 /
 &SYSTEM
                       ibrav = 4,
                           A = 9.88 ,
                           C = 15 ,
                         nat = 31,
                        ntyp = 2,
                     ecutwfc = 40.424239707 ,
                     ecutrho = 404.24239707 ,
                 occupations = 'smearing' ,
                     degauss = 0.01 ,
				   input_dft = 'vdW-DF' ,
    nspin = 2 ,
    starting_magnetization(1) = 0.5,
    starting_magnetization(2) = 0.5,
 /
 &ELECTRONS
            electron_maxstep = 50001,
                    conv_thr = 1.0D-6 ,
                 mixing_mode = 'local-TF' ,
                 mixing_beta = 0.5 ,
 /
ATOMIC_SPECIES
    C   12.01100  C.revpbe-n-kjpaw_psl.0.1.UPF 
   Cl   35.45200  Cl.revpbe-n-kjpaw_psl.0.3.0.UPF 
ATOMIC_POSITIONS (crystal)
C        0.001657945   0.002279773   0.000005507
C        0.254144409   0.008328523  -0.000098665
C        0.500528190   0.002217912  -0.001805542
C        0.748511363  -0.002839649  -0.001774382
C       -0.001518592   0.249719354  -0.000589015
C        0.084116396   0.169557025  -0.000744145
C        0.252545169   0.257208533  -0.001475137
C        0.337256306   0.174591850  -0.000563081
C        0.504571359   0.257167125   0.000002328
C        0.585338441   0.169493166  -0.000267211
C        0.751136766   0.249695290   0.000330545
C        0.831661481   0.163418332  -0.000455242
C        0.000960735   0.501986873   0.000542771
C        0.079135828   0.416258198  -0.001075404
C        0.243447972   0.501189327  -0.003565895
C        0.323539132   0.421643950  -0.003623242
C        0.597956648   0.421623167   0.000919892
C        0.757580673   0.501151496   0.001875458
C        0.837023424   0.416224676   0.001474748
C        0.006685415   0.755629754   0.001594086
C        0.084988127   0.669972789   0.000522161
C        0.248893005   0.755603679  -0.001833865
C        0.328219891   0.670652953  -0.004742285
C        0.487836668   0.750205701  -0.006284125
Cl       0.543071161   0.586350572  -0.003318494
C        0.762207382   0.750194061  -0.000314312
C        0.842293688   0.670647583   0.001650323
C        0.087306975   0.922123670   0.000655321
C        0.334737324   0.922090710  -0.001226167
C        0.581251117   0.914573709  -0.003510865
C        0.833248866   0.914625914  -0.000767143
K_POINTS automatic 
  16 16 1   0 0 0 

