 &CONTROL
                 calculation = 'nscf' ,
                      outdir = './tmp/' ,
                  pseudo_dir = '/home/deleted/pseudo_psl' ,
                      prefix = 'GCl_op' ,
                   verbosity = 'high' ,
               etot_conv_thr = 1.0D-5 ,
               forc_conv_thr = 4.0D-4 ,
                       nstep = 1000 ,
                    dipfield = .true. ,
 /
 &SYSTEM
                       ibrav = 4,
                           A = 9.88 ,
                           C = 15 ,
                         nat = 34,
                        ntyp = 4,
                     ecutwfc = 40.424239707 ,
                     ecutrho = 404.24239707 ,
                 occupations = 'tetrahedra' ,
                     degauss = 0.01 ,
				   input_dft = 'vdW-DF' ,
 /
 &ELECTRONS
            electron_maxstep = 50001,
                    conv_thr = 1.0D-6 ,
                 mixing_mode = 'local-TF' ,
                 mixing_beta = 0.5 ,
 /
ATOMIC_SPECIES
    C   12.01100  C.revpbe-n-kjpaw_psl.0.1.UPF 
   Cl   35.45200  Cl.revpbe-n-kjpaw_psl.0.3.0.UPF 
    O   15.99940  O.revpbe-n-kjpaw_psl.0.1.UPF 
    H   1.008000  H.revpbe-kjpaw_psl.0.1.UPF
ATOMIC_POSITIONS crystal 
C        0.006735195   0.014008081  -0.001884337
C        0.252911286   0.008358515  -0.008842861
C        0.504493848   0.013843840   0.000162776
C        0.758138119   0.018725270   0.016815045
C        0.008304132   0.264662800  -0.000475084
C        0.090157610   0.180372777  -0.004827469
C        0.257424984   0.260756268  -0.009289146
C        0.334354389   0.171314229  -0.010699241
C        0.500583965   0.260480099  -0.008686313
C        0.587630039   0.180206244  -0.003872740
C        0.753768625   0.264708621   0.000470533
C        0.839808939   0.182283075   0.005517628
C        0.005010183   0.512515971  -0.001354837
C        0.094422553   0.430164876  -0.000987216
C        0.267802487   0.511206281   0.001196508
C        0.348333602   0.422651378  -0.005757684
C        0.571369952   0.422520874  -0.005632924
C        0.740754750   0.511278723  -0.000231243
C        0.833208360   0.430145778  -0.000853374
C        0.002195552   0.760358103  -0.004226263
C        0.087463277   0.677256304  -0.005473303
C        0.255886988   0.760389170  -0.003207302
C        0.342340272   0.679571931   0.009175143
C        0.499781253   0.773835727   0.031624115
Cl       0.591017231   0.690633901   0.096262352
C        0.766337345   0.772254022   0.021602125
C        0.834118312   0.680028155   0.005279615
C        0.085707889   0.926401897  -0.005937400
C        0.338171103   0.926468226  -0.004565656
C        0.589650481   0.935062202   0.017955315
C        0.842254456   0.934555579   0.013487484
O        0.394486113   0.605680552   0.194517963
O        0.371726029   0.449672051   0.211644180
H        0.408776914   0.460923891   0.273113696
K_POINTS automatic  
  20 20 1   0 0 0 

