 &BANDS
                      prefix = 'PG' ,
                      outdir = './tmp/' ,
                     filband = 'PG-bands' ,
                     plot_2d = .false. ,
 /
