 &CONTROL
                 calculation = 'nscf' ,
                      outdir = './tmp/' ,
                  pseudo_dir = '/home/deleted/pseudo_psl' ,
                      prefix = 'GI_ip' ,
                   verbosity = 'high' ,
               etot_conv_thr = 1.0D-5 ,
               forc_conv_thr = 4.0D-4 ,
                       nstep = 1000 ,
                    dipfield = .true. ,
 /
 &SYSTEM
                       ibrav = 4,
                           A = 9.88 ,
                           C = 15 ,
                         nat = 33,
                        ntyp = 3,
                     ecutwfc = 40.424239707 ,
                     ecutrho = 404.24239707 ,
                 occupations = 'tetrahedra' ,
                     degauss = 0.01 ,
				   input_dft = 'vdW-DF' ,
 /
 &ELECTRONS
            electron_maxstep = 50001,
                    conv_thr = 1.0D-6 ,
                 mixing_mode = 'local-TF' ,
                 mixing_beta = 0.5 ,
 /
ATOMIC_SPECIES
    C   12.01100  C.revpbe-n-kjpaw_psl.0.1.UPF 
    I  126.90400  I.revpbe-n-kjpaw_psl.0.2.UPF 
    O   15.99940  O.revpbe-n-kjpaw_psl.0.1.UPF 
ATOMIC_POSITIONS crystal 
C        0.003510590   0.013220725   0.004996435
C        0.252401077   0.011925473   0.003425787
C        0.502466153   0.013394014   0.011893384
C        0.754787771   0.015805933   0.011289890
C        0.003551215   0.263402497   0.016221075
C        0.086837786   0.179232729   0.012676826
C        0.252014601   0.259233031   0.018504082
C        0.335236205   0.178453764   0.002740839
C        0.503140916   0.260566448  -0.010042255
C        0.586931655   0.179959260   0.006194732
C        0.753255271   0.263893113   0.007393337
C        0.838134729   0.181497640   0.012239122
C        0.002706296   0.513658507   0.009618943
C        0.087463205   0.431127229   0.018188151
C        0.252382221   0.512605905   0.029096537
C        0.324688502   0.418751123   0.057004597
C        0.591497430   0.416474011  -0.040236607
C        0.750405420   0.510355213  -0.016120742
C        0.835060467   0.429705813   0.003184283
C        0.000050394   0.762057794  -0.000053024
C        0.086170506   0.679583406   0.006082432
C        0.254548633   0.762321291   0.010831437
C        0.339860199   0.678579923   0.020526958
C        0.507791775   0.768300268   0.015427643
I        0.500599038   0.479651979  -0.155259680
C        0.753443859   0.767701756   0.000827887
C        0.831547772   0.679266493  -0.008488255
C        0.085053588   0.928684277   0.003472519
C        0.336697271   0.928795630   0.006885692
C        0.587786086   0.932053637   0.013723455
C        0.837164397   0.931969483   0.006211977
O        0.592346926   0.691631167   0.007048326
O        0.428674652   0.463930420   0.114494218
K_POINTS automatic 
  20 20 1   0 0 0 

