 &CONTROL
                 calculation = 'nscf' ,
                      outdir = './tmp/' ,
                  pseudo_dir = '/home/deleted/pseudo_psl' ,
                      prefix = 'GI_ip' ,
                   verbosity = 'high' ,
               etot_conv_thr = 1.0D-5 ,
               forc_conv_thr = 4.0D-4 ,
                       nstep = 1000 ,
                    dipfield = .true. ,
 /
 &SYSTEM
                       ibrav = 4,
                           A = 9.88 ,
                           C = 15 ,
                         nat = 34,
                        ntyp = 4,
                     ecutwfc = 40.424239707 ,
                     ecutrho = 404.24239707 ,
                 occupations = 'tetrahedra' ,
                     degauss = 0.01 ,
				   input_dft = 'vdW-DF' ,
 /
 &ELECTRONS
            electron_maxstep = 50001,
                    conv_thr = 1.0D-6 ,
                 mixing_mode = 'local-TF' ,
                 mixing_beta = 0.5 ,
 /
ATOMIC_SPECIES
    C   12.01100  C.revpbe-n-kjpaw_psl.0.1.UPF 
    I  126.90400  I.revpbe-n-kjpaw_psl.0.2.UPF 
    O   15.99940  O.revpbe-n-kjpaw_psl.0.1.UPF 
    H   1.008000  H.revpbe-kjpaw_psl.0.1.UPF
ATOMIC_POSITIONS crystal 
C       -0.013618473   0.002657642   0.003942868
C        0.239231982   0.009655503   0.008072470
C        0.484879510   0.003105919   0.005778669
C        0.733428249  -0.002406306  -0.004987617
C       -0.017478817   0.249491406   0.012620268
C        0.068224563   0.169545783   0.005663614
C        0.235418971   0.256403322  -0.004681716
C        0.322219369   0.175053757  -0.005444525
C        0.489967574   0.256464536  -0.008850454
C        0.570007757   0.170002172   0.003633868
C        0.735788535   0.249726657   0.010247025
C        0.815947335   0.163043249   0.008030512
C       -0.015292306   0.502008777   0.026191156
C        0.062895278   0.415963844   0.021225482
C        0.225629549   0.500990455   0.008681980
C        0.301309988   0.419808694  -0.010797348
C        0.588712175   0.419214291  -0.021950990
C        0.744689852   0.501170541  -0.000027635
C        0.821463039   0.416168269   0.016464791
C       -0.008533555   0.756318982   0.017040437
C        0.068955897   0.670459207   0.026418325
C        0.233145145   0.756536176   0.021501300
C        0.310859667   0.671433522   0.009066919
C        0.468037695   0.752548805  -0.009694825
I        0.525565693   0.586294400  -0.061785142
C        0.755157899   0.753071547  -0.020488744
C        0.829725824   0.671228571   0.000363703
C        0.072393472   0.922874899   0.010634907
C        0.319277310   0.923086167   0.012804294
C        0.565271906   0.916204624  -0.004141373
C        0.819765747   0.916194747  -0.008154351
O        0.583716958   0.582624698   0.151984147
O        0.722319451   0.573508012   0.167431780
H        0.615590034   0.689174211   0.171653614
K_POINTS automatic 
  20 20 1   0 0 0 

