 &CONTROL
                 calculation = 'scf' ,
                      outdir = './tmp_subs/' ,
                  pseudo_dir = '/home/deleted/pseudo_psl' ,
                      prefix = 'GBr_op-subs' ,
                   verbosity = 'high' ,
               etot_conv_thr = 1.0D-5 ,
               forc_conv_thr = 4.0D-4 ,
                       nstep = 1000 ,
                    dipfield = .true. ,
 /
 &SYSTEM
                       ibrav = 4,
                           A = 9.88 ,
                           C = 15 ,
                         nat = 31,
                        ntyp = 2,
                     ecutwfc = 40.424239707 ,
                     ecutrho = 404.24239707 ,
                 occupations = 'smearing' ,
                     degauss = 0.01 ,
				   input_dft = 'vdW-DF' ,
    nspin = 2 ,
    starting_magnetization(1) = 0.5,
    starting_magnetization(2) = 0.5,
 /
 &ELECTRONS
            electron_maxstep = 50001,
                    conv_thr = 1.0D-6 ,
                 mixing_mode = 'local-TF' ,
                 mixing_beta = 0.5 ,
 /
ATOMIC_SPECIES
    C   12.01100  C.revpbe-n-kjpaw_psl.0.1.UPF 
   Br   79.90350  Br.revpbe-n-kjpaw_psl.0.2.UPF 
ATOMIC_POSITIONS (crystal)
C       -0.003430026  -0.003899986  -0.002857611
C        0.242801811  -0.014396377  -0.002923447
C        0.499530040  -0.003899986  -0.002857611
C        0.755543260   0.011086518  -0.003345475
C        0.005463334   0.252653777  -0.002637238
C        0.082989032   0.163287514  -0.002537374
C        0.249887696   0.239850234  -0.002479870
C        0.324309502   0.148619005  -0.002921612
C        0.489962537   0.239850234  -0.002479870
C        0.580298482   0.163287514  -0.002537374
C        0.747190443   0.252653777  -0.002637238
C        0.836913448   0.173826898  -0.002849593
C       -0.001055585   0.497888830  -0.003461223
C        0.094105731   0.417698239  -0.003196195
C        0.271185864   0.495693141  -0.003574881
C        0.350058791   0.402527823  -0.001560105
C        0.552469031   0.402527823  -0.001560105
C        0.724507277   0.495693141  -0.003574881
C        0.823592508   0.417698239  -0.003196195
C       -0.014228519   0.741927589  -0.003552444
C        0.080841616   0.661683233  -0.003593812
C        0.256156109   0.741927589  -0.003552444
C        0.355956750   0.663786753  -0.003873752
C        0.527770437   0.756836189  -0.003543689
Br       0.481846239   0.463692479   0.183447972
C        0.729065752   0.756836189  -0.003543689
C        0.807830002   0.663786753  -0.003873752
C        0.074288096   0.906818886  -0.003026183
C        0.332530789   0.906818886  -0.003026183
C        0.589676820   0.919221074  -0.003303772
C        0.829544253   0.919221074  -0.003303772
K_POINTS automatic 
  16 16 1   0 0 0 

