 &CONTROL
                 calculation = 'scf' ,
                      outdir = './tmp/' ,
                  pseudo_dir = '/home/deleted/pseudo_psl' ,
                      prefix = 'GCl_op' ,
                   verbosity = 'high' ,
               etot_conv_thr = 1.0D-5 ,
               forc_conv_thr = 4.0D-4 ,
                       nstep = 1000 ,
                    dipfield = .true. ,
 /
 &SYSTEM
                       ibrav = 4,
                           A = 9.88 ,
                           C = 15 ,
                         nat = 33,
                        ntyp = 3,
                     ecutwfc = 40.424239707 ,
                     ecutrho = 404.24239707 ,
                 occupations = 'smearing' ,
                     degauss = 0.01 ,
				   input_dft = 'vdW-DF' ,
 /
 &ELECTRONS
            electron_maxstep = 50001,
                    conv_thr = 1.0D-6 ,
                 mixing_mode = 'local-TF' ,
                 mixing_beta = 0.5 ,
 /
ATOMIC_SPECIES
    C   12.01100  C.revpbe-n-kjpaw_psl.0.1.UPF 
   Cl   35.45200  Cl.revpbe-n-kjpaw_psl.0.3.0.UPF 
    O   15.99940  O.revpbe-n-kjpaw_psl.0.1.UPF 
ATOMIC_POSITIONS crystal 
C        0.003533626   0.002558149  -0.004841962
C        0.249359729  -0.003363995  -0.012601480
C        0.501000036   0.002554517  -0.004279305
C        0.754606577   0.007172588   0.012927704
C        0.004807312   0.253024071  -0.003903430
C        0.086786131   0.168877591  -0.008151013
C        0.254050895   0.249055419  -0.012489128
C        0.330867764   0.159653239  -0.014202576
C        0.496992547   0.248921669  -0.012069544
C        0.584167186   0.168838235  -0.007829740
C        0.750335589   0.252999244  -0.003697231
C        0.836420484   0.170763121   0.001540763
C        0.001449520   0.500702808  -0.005119849
C        0.090752793   0.418488278  -0.004620941
C        0.264215169   0.499421641  -0.002569492
C        0.345073440   0.410976316  -0.008855136
C        0.567796605   0.410948759  -0.008347119
C        0.737234430   0.499352461  -0.002656617
C        0.829874896   0.418487141  -0.004447531
C       -0.001145310   0.748664170  -0.007452290
C        0.083913306   0.665583713  -0.009275687
C        0.252046957   0.748691964  -0.007285960
C        0.338651122   0.667795269   0.004306415
C        0.496620920   0.762575464   0.024697123
Cl       0.590065428   0.682126442   0.090593683
C        0.766067480   0.761870286   0.021767271
C        0.831063227   0.667949822   0.003651146
C        0.082286008   0.914786064  -0.009149305
C        0.334569082   0.914853620  -0.008778089
C        0.586365485   0.924000698   0.012650889
C        0.839394681   0.923670350   0.011399222
O        0.408555069   0.519533615   0.251262813
O        0.368888476   0.591800609   0.194493064
K_POINTS automatic 
  16 16 1   0 0 0 

