 &CONTROL
                 calculation = 'bands' ,
                      outdir = './tmp/' ,
                  pseudo_dir = '/home/deleted/pseudo_psl' ,
                      prefix = 'GF_op' ,
                   verbosity = 'high' ,
               etot_conv_thr = 1.0D-5 ,
               forc_conv_thr = 4.0D-4 ,
                       nstep = 1000 ,
                    dipfield = .true. ,
 /
 &SYSTEM
                       ibrav = 4,
                           A = 9.88 ,
                           C = 15 ,
                         nat = 33,
                        ntyp = 3,
                     ecutwfc = 40.424239707 ,
                     ecutrho = 404.24239707 ,
                 occupations = 'tetrahedra' ,
                     degauss = 0.01 ,
				   input_dft = 'vdW-DF' ,
    nspin = 2 ,
    starting_magnetization(1) = 0.5,
    starting_magnetization(2) = 0.5,
    starting_magnetization(3) = 0.5,
 /
 &ELECTRONS
            electron_maxstep = 50001,
                    conv_thr = 1.0D-6 ,
                 mixing_mode = 'local-TF' ,
                 mixing_beta = 0.5 ,
 /
ATOMIC_SPECIES
    C   12.01100  C.revpbe-n-kjpaw_psl.0.1.UPF 
    F   18.99800  F.revpbe-n-kjpaw_psl.0.1.UPF 
    O   15.99940  O.revpbe-n-kjpaw_psl.0.1.UPF 
ATOMIC_POSITIONS (crystal)
C       -0.003293412  -0.004430971  -0.001662973
C        0.240611643  -0.012742793   0.001255994
C        0.492851333  -0.004352386  -0.002226078
C        0.747720245   0.001510603  -0.009688022
C       -0.002011127   0.246437020  -0.003147009
C        0.079933241   0.161848566  -0.000946520
C        0.246823933   0.240346730   0.000329877
C        0.321999773   0.150058507   0.001578495
C        0.487493837   0.240320509   0.000350198
C        0.575941216   0.161895156  -0.001196975
C        0.742483758   0.246412670  -0.003269860
C        0.829809497   0.165597426  -0.005426323
C       -0.006508364   0.492867832  -0.002963078
C        0.084624007   0.411632308  -0.003043783
C        0.259291215   0.490921982  -0.003689346
C        0.342300249   0.402479245  -0.002014011
C        0.554134702   0.402466012  -0.001782532
C        0.725701008   0.490822539  -0.003750493
C        0.821100317   0.411646566  -0.003124100
C       -0.009760067   0.740240649  -0.001489320
C        0.075973657   0.657851937  -0.001260511
C        0.244087763   0.740309326  -0.001729944
C        0.332416824   0.658646410  -0.005849658
C        0.491340345   0.758319404  -0.011077784
F        0.586227354   0.677554063  -0.036215446
C        0.760623717   0.758089734  -0.010999240
C        0.820248472   0.658589366  -0.005589570
C        0.073890195   0.906298001  -0.000143586
C        0.326363272   0.906334814  -0.000458389
C        0.581328723   0.918106096  -0.008900243
C        0.830594660   0.917908272  -0.008378558
O        0.573359109   0.698116065   0.167682460
O        0.438965566   0.641231677   0.202159664
K_POINTS automatic 
  20 20 1   0 0 0 

