 &CONTROL
                 calculation = 'bands' ,
                      outdir = './tmp/' ,
                  pseudo_dir = '/home/deleted/pseudo_psl' ,
                      prefix = 'MVG_tx' ,
                    dipfield = .true. ,
                   verbosity = 'high',
                       nstep = 1000,
               forc_conv_thr = 4.0D-4,
               etot_conv_thr = 1.0D-5
 /
 &SYSTEM
                       ibrav = 4,
                           A = 9.88 ,
                           C = 15 ,
                         nat = 33,
                        ntyp = 2,
                     ecutwfc = 40.424239707 ,
                     ecutrho = 404.24239707 ,
                 occupations = 'tetrahedra' ,
                     degauss = 0.01 ,
				   input_dft = 'vdW-DF' ,
    nspin = 2 ,
    starting_magnetization(1) = 0.5,
	starting_magnetization(2) = -0.3,
 /
 &ELECTRONS
            electron_maxstep = 50001,
                    conv_thr = 1.0D-6 ,
                 mixing_mode = 'local-TF' ,
                 mixing_beta = 0.5 ,
 /
 &IONS
                ion_dynamics = 'bfgs' ,
 /
ATOMIC_SPECIES
    C   12.01100  C.revpbe-n-kjpaw_psl.0.1.UPF 
    O   15.99940  O.revpbe-n-kjpaw_psl.0.1.UPF 
ATOMIC_POSITIONS crystal 
C        0.003825696   0.007109362   0.001060158
C        0.252307117   0.004614234  -0.006242682
C        0.503283667   0.007109362   0.001060158
C        0.755484329   0.010968658   0.012920188
C        0.004940358   0.257988005  -0.001143736
C        0.086133628   0.173059768  -0.003949762
C        0.251697115   0.253268798  -0.011779366
C        0.334401680   0.168803361  -0.012427429
C        0.501571683   0.253268798  -0.011779366
C        0.586926139   0.173059768  -0.003949762
C        0.753047648   0.257988005  -0.001143736
C        0.837411747   0.174823495   0.003231145
C        0.003476138   0.506952274   0.000253207
C        0.089570417   0.424041442  -0.001118680
C        0.258946357   0.506393413  -0.001352580
C        0.334509426   0.416832677  -0.013504459
C        0.582323250   0.416832677  -0.013504459
C        0.747447056   0.506393413  -0.001352580
C        0.834471024   0.424041442  -0.001118680
C        0.001011054   0.755711618   0.000651641
C        0.086224830   0.672449662  -0.001608140
C        0.254700565   0.755711618   0.000651641
C        0.341530116   0.674816565   0.009165414
C        0.504439624   0.763151087   0.025926338
C        0.599642795   0.699285592   0.065818414
C        0.758711463   0.763151087   0.025926338
C        0.833286449   0.674816565   0.009165414
C        0.085152277   0.922078103  -0.001501651
C        0.336925825   0.922078103  -0.001501651
C        0.587363347   0.926475490   0.013660945
C        0.839112142   0.926475490   0.013660945
O        0.495610550   0.491221101  -0.027921057
O        0.559005493   0.618010986   0.133747829
K_POINTS crystal_b 
4
0.0000000000    0.0000000000    0.0000000000 17
0.0000000000    0.5000000000    0.0000000000 10
0.3333333333    0.3333333333    0.0000000000 20
0.0000000000    0.0000000000    0.0000000000 1

