&PROJWFC
	outdir = './tmp',
	prefix = 'GI_op',
	filpdos = 'GI_op-pdos',
	ngauss = 1,
	degauss = 0.01,
	DeltaE = 0.01,
	lsym = .true.
/
