 &CONTROL
                 calculation = 'scf' ,
                      outdir = './tmp/' ,
                  pseudo_dir = '/home/deleted/pseudo_psl' ,
                      prefix = 'GF_ip' ,
                   verbosity = 'high' ,
               etot_conv_thr = 1.0D-5 ,
               forc_conv_thr = 4.0D-4 ,
                       nstep = 1000 ,
                    dipfield = .true. ,
 /
 &SYSTEM
                       ibrav = 4,
                           A = 9.88 ,
                           C = 15 ,
                         nat = 33,
                        ntyp = 3,
                     ecutwfc = 40.424239707 ,
                     ecutrho = 404.24239707 ,
                 occupations = 'smearing' ,
                     degauss = 0.01 ,
				   input_dft = 'vdW-DF' ,
 /
 &ELECTRONS
            electron_maxstep = 50001,
                    conv_thr = 1.0D-6 ,
                 mixing_mode = 'local-TF' ,
                 mixing_beta = 0.5 ,
 /
ATOMIC_SPECIES
    C   12.01100  C.revpbe-n-kjpaw_psl.0.1.UPF 
    F   18.99800  F.revpbe-n-kjpaw_psl.0.1.UPF 
    O   15.99940  O.revpbe-n-kjpaw_psl.0.1.UPF 
ATOMIC_POSITIONS crystal 
C        0.002287559   0.001139408   0.004873861
C        0.246558933  -0.006882133   0.007319770
C        0.498851849   0.001139408   0.004873861
C        0.753387452   0.006774903  -0.001602608
C        0.003813700   0.251983819   0.002453105
C        0.085582790   0.167419019   0.004657439
C        0.252619273   0.246230239   0.005584509
C        0.327912527   0.155825055   0.006906839
C        0.493610967   0.246230239   0.005584509
C        0.581836227   0.167419019   0.004657439
C        0.748170118   0.251983819   0.002453105
C        0.835408863   0.170817726   0.000544220
C       -0.000551861   0.498896279   0.003410531
C        0.090489568   0.417156968   0.002932227
C        0.264994226   0.496734398   0.003212373
C        0.347497320   0.408048271   0.003837815
C        0.560550950   0.408048271   0.003837815
C        0.731740172   0.496734398   0.003212373
C        0.826667399   0.417156968   0.002932227
C       -0.004214762   0.746132394   0.005617150
C        0.081755124   0.663510248   0.005496590
C        0.250347155   0.746132394   0.005617150
C        0.338572059   0.664583837   0.002860661
C        0.498778642   0.762442462   0.002466009
F        0.593064316   0.686128634  -0.037861091
C        0.763663821   0.762442462   0.002466009
C        0.826011777   0.664583837   0.002860661
C        0.079734673   0.911974421   0.006582329
C        0.332239745   0.911974421   0.006582329
C        0.586614985   0.923208822  -0.000033690
C        0.836593837   0.923208822  -0.000033690
O        0.620659332   0.741318664   0.140679958
O        0.556252425   0.612504853   0.185018216
K_POINTS automatic 
  16 16 1   0 0 0 

