 &CONTROL
                 calculation = 'nscf' ,
                      outdir = './tmp/' ,
                  pseudo_dir = '/home/deleted/pseudo_psl' ,
                      prefix = 'GF_ip' ,
                   verbosity = 'high' ,
               etot_conv_thr = 1.0D-5 ,
               forc_conv_thr = 4.0D-4 ,
                       nstep = 1000 ,
                    dipfield = .true. ,
 /
 &SYSTEM
                       ibrav = 4,
                           A = 9.88 ,
                           C = 15 ,
                         nat = 32,
                        ntyp = 3,
                     ecutwfc = 40.424239707 ,
                     ecutrho = 404.24239707 ,
                 occupations = 'tetrahedra' ,
                     degauss = 0.01 ,
				   input_dft = 'vdW-DF' ,
 /
 &ELECTRONS
            electron_maxstep = 50001,
                    conv_thr = 1.0D-6 ,
                 mixing_mode = 'local-TF' ,
                 mixing_beta = 0.5 ,
 /
ATOMIC_SPECIES
    C   12.01100  C.revpbe-n-kjpaw_psl.0.1.UPF 
    F   18.99800  F.revpbe-n-kjpaw_psl.0.1.UPF 
    O   15.99940  O.revpbe-n-kjpaw_psl.0.1.UPF 
ATOMIC_POSITIONS crystal 
C       -0.001809292   0.001536895  -0.001589824
C        0.245135450  -0.003729686   0.006304554
C        0.496973417   0.002095968   0.010020486
C        0.746530357   0.003479162  -0.001004488
C       -0.000579247   0.252593537  -0.001638535
C        0.081691368   0.168562616   0.001938146
C        0.249625306   0.249958304   0.003785529
C        0.326706498   0.160308108   0.004818016
C        0.492306466   0.249185564   0.002629617
C        0.578897055   0.168444643   0.002669900
C        0.745079484   0.252627453   0.000181447
C        0.830671329   0.169945536  -0.001923658
C       -0.003838395   0.500365069  -0.000178814
C        0.085505294   0.418536062   0.001211351
C        0.260474628   0.501678737   0.008941302
C        0.342063475   0.412051693   0.004722853
C        0.562275631   0.412023490  -0.001398099
C        0.731831388   0.499973315  -0.007903288
C        0.824278495   0.418537339  -0.002711467
C       -0.005746232   0.749145813  -0.001925010
C        0.079082035   0.665978192   0.003069730
C        0.246510103   0.747382797   0.011329766
C        0.331584050   0.666775052   0.020153430
C        0.496291893   0.759268820   0.048693465
F        0.620041719   0.692902170  -0.076274393
C        0.761962077   0.762289177  -0.034162132
C        0.827337731   0.668660429  -0.015459669
C        0.077903688   0.914742845   0.000860311
C        0.329406938   0.915166072   0.011607339
C        0.582946580   0.923010220   0.015470682
C        0.832703662   0.921429068  -0.012803848
O        0.556203504   0.706262947   0.100565301
K_POINTS automatic 
  20 20 1   0 0 0 

