 &CONTROL
                 calculation = 'scf' ,
                      outdir = './tmp_subs/' ,
                  pseudo_dir = '/home/deleted/pseudo_psl' ,
                      prefix = 'GF_ip_subs' ,
                   verbosity = 'high' ,
               etot_conv_thr = 1.0D-5 ,
               forc_conv_thr = 4.0D-4 ,
                       nstep = 1000 ,
                    dipfield = .true. ,
 /
 &SYSTEM
                       ibrav = 4,
                           A = 9.88 ,
                           C = 15 ,
                         nat = 31,
                        ntyp = 2,
                     ecutwfc = 40.424239707 ,
                     ecutrho = 404.24239707 ,
                 occupations = 'smearing' ,
                     degauss = 0.01 ,
				   input_dft = 'vdW-DF' ,
 /
 &ELECTRONS
            electron_maxstep = 50001,
                    conv_thr = 1.0D-6 ,
                 mixing_mode = 'local-TF' ,
                 mixing_beta = 0.5 ,
 /
ATOMIC_SPECIES
    C   12.01100  C.revpbe-n-kjpaw_psl.0.1.UPF 
    F   18.99800  F.revpbe-n-kjpaw_psl.0.1.UPF 
ATOMIC_POSITIONS crystal 
C       -0.002738495   0.008517504   0.009610638
C        0.246155310   0.006186172   0.015637601
C        0.496915990   0.008629131   0.015949721
C        0.745825893   0.009402668   0.006912370
C       -0.002560636   0.259020582   0.010079182
C        0.079041431   0.174788041   0.014746644
C        0.245354885   0.255741441   0.016916980
C        0.328395512   0.171763165   0.014751170
C        0.494433434   0.255306637   0.009623851
C        0.579700606   0.174466645   0.008177912
C        0.745773456   0.259047803   0.006756407
C        0.829866426   0.175867808   0.006824790
C       -0.003886336   0.508199373   0.009111958
C        0.081817490   0.425513888   0.013779949
C        0.250924587   0.509213079   0.023681146
C        0.329137943   0.419307839   0.019547953
C        0.574758108   0.419513586   0.005734724
C        0.741080186   0.508020047  -0.003376738
C        0.827325287   0.425634619   0.003538664
C       -0.004583626   0.758177909   0.006351151
C        0.078912232   0.674201530   0.012381684
C        0.245990582   0.756647522   0.021071946
C        0.329414925   0.675203201   0.032158658
C        0.494904461   0.769424858   0.060628203
F        0.632898172   0.713843833  -0.081800668
C        0.764977764   0.771632635  -0.030440066
C        0.829558192   0.676950099  -0.010233247
C        0.078962837   0.923891439   0.010812411
C        0.329516888   0.924352211   0.019448585
C        0.581824973   0.928766752   0.022186379
C        0.832862802   0.928310277  -0.004019039
K_POINTS automatic 
  16 16 1   0 0 0 

