 &CONTROL
                 calculation = 'scf' ,
                      outdir = './tmp/' ,
                  pseudo_dir = '/home/deleted/pseudo_psl' ,
                      prefix = 'GCl_ip' ,
                   verbosity = 'high' ,
               etot_conv_thr = 1.0D-5 ,
               forc_conv_thr = 4.0D-4 ,
                       nstep = 1000 ,
                    dipfield = .true. ,
 /
 &SYSTEM
                       ibrav = 4,
                           A = 9.88 ,
                           C = 15 ,
                         nat = 33,
                        ntyp = 3,
                     ecutwfc = 40.424239707 ,
                     ecutrho = 404.24239707 ,
                 occupations = 'smearing' ,
                     degauss = 0.01 ,
				   input_dft = 'vdW-DF' ,
 /
 &ELECTRONS
            electron_maxstep = 50001,
                    conv_thr = 1.0D-6 ,
                 mixing_mode = 'local-TF' ,
                 mixing_beta = 0.5 ,
 /
ATOMIC_SPECIES
    C   12.01100  C.revpbe-n-kjpaw_psl.0.1.UPF 
   Cl   35.45200  Cl.revpbe-n-kjpaw_psl.0.3.0.UPF 
    O   15.99940  O.revpbe-n-kjpaw_psl.0.1.UPF 
ATOMIC_POSITIONS crystal 
C        0.003239275   0.003391682   0.008560520
C        0.248358960  -0.003282082   0.016367458
C        0.500152407   0.003391682   0.008560520
C        0.754026481   0.008052963  -0.007819186
C        0.004029137   0.253624846   0.007749918
C        0.086359026   0.169618973   0.012009398
C        0.253667373   0.249579733   0.015952365
C        0.329911698   0.159823397   0.018165588
C        0.495912360   0.249579733   0.015952365
C        0.583259945   0.169618973   0.012009398
C        0.749595709   0.253624846   0.007749918
C        0.836032250   0.172064500   0.002582343
C        0.000529298   0.501058596   0.008606026
C        0.090294147   0.419071102   0.008235409
C        0.264056976   0.499989839   0.006232820
C        0.346580344   0.411676169   0.011833236
C        0.565095824   0.411676169   0.011833236
C        0.735932863   0.499989839   0.006232820
C        0.828776955   0.419071102   0.008235409
C       -0.001831838   0.748921267   0.010168155
C        0.082979576   0.665959155   0.012164895
C        0.250753105   0.748921267   0.010168155
C        0.336640461   0.667545503  -0.000672786
C        0.496120187   0.763803136  -0.017035805
Cl       0.592191337   0.684382675  -0.082873050
C        0.767682947   0.763803136  -0.017035805
C        0.830905041   0.667545503  -0.000672786
C        0.081573416   0.915173890   0.012514376
C        0.333600474   0.915173890   0.012514376
C        0.586020928   0.925371192  -0.007897675
C        0.839350263   0.925371192  -0.007897675
O        0.682355428   0.864710854   0.164300556
O        0.612514310   0.725028619   0.133205507
K_POINTS automatic 
  16 16 1   0 0 0 

