 &CONTROL
                 calculation = 'scf' ,
                      outdir = './tmp/' ,
                  pseudo_dir = '/home/deleted/pseudo_psl' ,
                      prefix = 'GBr_op' ,
                   verbosity = 'high' ,
               etot_conv_thr = 1.0D-5 ,
               forc_conv_thr = 4.0D-4 ,
                       nstep = 1000 ,
                    dipfield = .true. ,
 /
 &SYSTEM
                       ibrav = 4,
                           A = 9.88 ,
                           C = 15 ,
                         nat = 33,
                        ntyp = 3,
                     ecutwfc = 40.424239707 ,
                     ecutrho = 404.24239707 ,
                 occupations = 'smearing' ,
                     degauss = 0.01 ,
				   input_dft = 'vdW-DF' ,
    nspin = 2 ,
    starting_magnetization(1) = 0.5,
    starting_magnetization(2) = 0.5,
    starting_magnetization(3) = 0.5,
 /
 &ELECTRONS
            electron_maxstep = 50001,
                    conv_thr = 1.0D-6 ,
                 mixing_mode = 'local-TF' ,
                 mixing_beta = 0.5 ,
 /
ATOMIC_SPECIES
    C   12.01100  C.revpbe-n-kjpaw_psl.0.1.UPF 
   Br   79.90350  Br.revpbe-n-kjpaw_psl.0.2.UPF 
    O   15.99940  O.revpbe-n-kjpaw_psl.0.1.UPF 
ATOMIC_POSITIONS (crystal)
C       -0.000106954   0.002490978  -0.014619819
C        0.246011032  -0.007977936  -0.014291317
C        0.502597932   0.002490978  -0.014619819
C        0.758551132   0.017102263  -0.015263633
C        0.008570977   0.258933232  -0.015557333
C        0.086280335   0.169678327  -0.014874279
C        0.253315066   0.246611377  -0.014972067
C        0.327385576   0.154771155  -0.014383695
C        0.493296311   0.246611377  -0.014972067
C        0.583397991   0.169678327  -0.014874279
C        0.750362255   0.258933232  -0.015557333
C        0.840052736   0.180105474  -0.015397446
C        0.002050198   0.504100397  -0.016719312
C        0.097071281   0.423826388  -0.016486280
C        0.274916087   0.501958171  -0.016844989
C        0.353638749   0.408953375  -0.016032940
C        0.555314626   0.408953375  -0.016032940
C        0.727042083   0.501958171  -0.016844989
C        0.826755107   0.423826388  -0.016486280
C       -0.011181760   0.748099373  -0.016002241
C        0.083940476   0.667880953  -0.016485674
C        0.259281134   0.748099373  -0.016002241
C        0.358308312   0.670098222  -0.016612298
C        0.530260403   0.763219278  -0.014515259
Br       0.597890878   0.695781757   0.170566019
C        0.732958875   0.763219278  -0.014515259
C        0.811789909   0.670098222  -0.016612298
C        0.077420315   0.913148334  -0.014701950
C        0.335728018   0.913148334  -0.014701950
C        0.592883248   0.925863769  -0.014920146
C        0.832980520   0.925863769  -0.014920146
O        0.672819767   0.845639532   0.427955328
O        0.605084047   0.710168093   0.399632263
K_POINTS automatic 
  16 16 1   0 0 0 

