 &CONTROL
                 calculation = 'scf' ,
                      outdir = './tmp/' ,
                  pseudo_dir = '/home/deleted/pseudo_psl' ,
                      prefix = 'GCl_op' ,
                   verbosity = 'high' ,
               etot_conv_thr = 1.0D-5 ,
               forc_conv_thr = 4.0D-4 ,
                       nstep = 1000 ,
                    dipfield = .true. ,
 /
 &SYSTEM
                       ibrav = 4,
                           A = 9.88 ,
                           C = 15 ,
                         nat = 34,
                        ntyp = 4,
                     ecutwfc = 40.424239707 ,
                     ecutrho = 404.24239707 ,
                 occupations = 'smearing' ,
                     degauss = 0.01 ,
				   input_dft = 'vdW-DF' ,
 /
 &ELECTRONS
            electron_maxstep = 50001,
                    conv_thr = 1.0D-6 ,
                 mixing_mode = 'local-TF' ,
                 mixing_beta = 0.5 ,
 /
ATOMIC_SPECIES
    C   12.01100  C.revpbe-n-kjpaw_psl.0.1.UPF 
   Cl   35.45200  Cl.revpbe-n-kjpaw_psl.0.3.0.UPF 
    O   15.99940  O.revpbe-n-kjpaw_psl.0.1.UPF 
    H   1.008000  H.revpbe-kjpaw_psl.0.1.UPF
ATOMIC_POSITIONS crystal 
C        0.010780936  -0.002842646  -0.008443376
C        0.256934070  -0.008443365  -0.015624281
C        0.508505865  -0.002940625  -0.006958743
C        0.762091110   0.001769111   0.009692056
C        0.012313975   0.247827815  -0.007209203
C        0.094124047   0.163506525  -0.011388893
C        0.261474196   0.243945216  -0.015667301
C        0.338402990   0.154471807  -0.017343244
C        0.504663350   0.243705957  -0.015310582
C        0.591677431   0.163393289  -0.010803408
C        0.757796555   0.247808247  -0.006578333
C        0.843777941   0.165302317  -0.001538396
C        0.009064117   0.495742776  -0.008103750
C        0.098417628   0.413352758  -0.007702252
C        0.271727569   0.494371926  -0.005272264
C        0.352308339   0.405827695  -0.011977761
C        0.575594262   0.405696043  -0.011835022
C        0.744900357   0.494387910  -0.006280730
C        0.837283878   0.413278283  -0.007580123
C        0.006209539   0.743574840  -0.010724401
C        0.091427983   0.660450913  -0.012091795
C        0.259798557   0.743619612  -0.009868257
C        0.346382417   0.662861363   0.002268714
C        0.504231480   0.756990705   0.023699265
Cl       0.594891338   0.675017057   0.089618136
C        0.770973475   0.755584056   0.016418854
C        0.838260661   0.663225249  -0.000542840
C        0.089717227   0.909579684  -0.012534959
C        0.342143930   0.909646725  -0.011459050
C        0.593638503   0.918244982   0.010367783
C        0.846361637   0.917642550   0.007060540
O        0.445508972   0.522403876   0.247372032
O        0.394041789   0.598771789   0.183388987
H        0.366082565   0.412492785   0.239027018
K_POINTS automatic 
  16 16 1   0 0 0 

