 &CONTROL
                 calculation = 'bands' ,
                      outdir = './tmp/' ,
                  pseudo_dir = '/home/deleted/pseudo_psl' ,
                      prefix = 'MVGB1' ,
                    dipfield = .true. ,
                   verbosity = 'high',
                       nstep = 1000,
               forc_conv_thr = 4.0D-4,
               etot_conv_thr = 1.0D-5
 /
 &SYSTEM
                       ibrav = 4,
                           A = 9.88 ,
                           C = 15 ,
                         nat = 30,
                        ntyp = 1,
                     ecutwfc = 40.424239707 ,
                     ecutrho = 404.24239707 ,
                 occupations = 'tetrahedra' ,
                     degauss = 0.01 ,
				   input_dft = 'vdW-DF' ,
    nspin = 2 ,
    starting_magnetization(1) = 0.5,
 /
 &ELECTRONS
            electron_maxstep = 50001,
                    conv_thr = 1.0D-6 ,
                 mixing_mode = 'local-TF' ,
                 mixing_beta = 0.5 ,
 /
ATOMIC_SPECIES
    C   12.01100  C.revpbe-n-kjpaw_psl.0.1.UPF 
ATOMIC_POSITIONS crystal 
C       -0.001614469  -0.000366289  -0.000000008
C        0.244625622  -0.010748762  -0.000000031
C        0.501248149  -0.000366266   0.000000029
C        0.757697867   0.015395844  -0.000000018
C        0.007824505   0.256542516   0.000000043
C        0.084947754   0.167032948   0.000000044
C        0.251894030   0.243582443   0.000000065
C        0.325635527   0.151271056  -0.000000012
C        0.491688369   0.243582397  -0.000000061
C        0.582085157   0.167032955  -0.000000039
C        0.748717889   0.256542469  -0.000000049
C        0.838707596   0.177415248  -0.000000042
C        0.000997242   0.501994451   0.000000029
C        0.096484770   0.421272696   0.000000086
C        0.273829207   0.498873787   0.000000017
C        0.352317765   0.405591308   0.000000020
C        0.553273588   0.405591365  -0.000000076
C        0.725044695   0.498873847  -0.000000040
C        0.824787986   0.421272727  -0.000000042
C       -0.013151383   0.745393988  -0.000000017
C        0.082336128   0.664672199  -0.000000032
C        0.258545417   0.745393976  -0.000000043
C        0.358288722   0.667792816   0.000000007
C        0.530059812   0.761075328   0.000000093
C        0.731015507   0.761075290   0.000000048
C        0.809504164   0.667792895   0.000000014
C        0.075508784   0.910124244  -0.000000018
C        0.334615428   0.910124170  -0.000000041
C        0.591644908   0.923084158   0.000000081
C        0.831439256   0.923084201  -0.000000007
K_POINTS crystal_b 
4
0.0000000000    0.0000000000    0.0000000000 17
0.0000000000    0.5000000000    0.0000000000 10
0.3333333333    0.3333333333    0.0000000000 20
0.0000000000    0.0000000000    0.0000000000 1

