 &CONTROL
                 calculation = 'nscf' ,
                      outdir = './tmp/' ,
                  pseudo_dir = '/home/deleted/pseudo_psl' ,
                      prefix = 'GBr_op' ,
                   verbosity = 'high' ,
               etot_conv_thr = 1.0D-5 ,
               forc_conv_thr = 4.0D-4 ,
                       nstep = 1000 ,
                    dipfield = .true. ,
 /
 &SYSTEM
                       ibrav = 4,
                           A = 9.88 ,
                           C = 15 ,
                         nat = 33,
                        ntyp = 3,
                     ecutwfc = 40.424239707 ,
                     ecutrho = 404.24239707 ,
                 occupations = 'tetrahedra' ,
                     degauss = 0.01 ,
				   input_dft = 'vdW-DF' ,
    nspin = 2 ,
    starting_magnetization(1) = 0.5,
    starting_magnetization(2) = 0.5,
    starting_magnetization(3) = 0.5,
 /
 &ELECTRONS
            electron_maxstep = 50001,
                    conv_thr = 1.0D-6 ,
                 mixing_mode = 'local-TF' ,
                 mixing_beta = 0.5 ,
 /
ATOMIC_SPECIES
    C   12.01100  C.revpbe-n-kjpaw_psl.0.1.UPF 
   Br   79.90350  Br.revpbe-n-kjpaw_psl.0.2.UPF 
    O   15.99940  O.revpbe-n-kjpaw_psl.0.1.UPF 
ATOMIC_POSITIONS (crystal)
C        0.008471598   0.007657105   0.001924479
C        0.254307772  -0.002461941  -0.000914780
C        0.510809450   0.007975458  -0.003950333
C        0.767439931   0.020751874  -0.001021940
C        0.017044686   0.263446029  -0.003598731
C        0.095166417   0.174863187  -0.001906191
C        0.262213654   0.251999943  -0.003125653
C        0.336286000   0.160666792  -0.002525652
C        0.502575153   0.252868881  -0.004292281
C        0.592297632   0.175306866  -0.004634455
C        0.759452579   0.263368585  -0.005775700
C        0.848955322   0.184492381  -0.004068151
C        0.011027184   0.508817468  -0.005030683
C        0.105857148   0.428661935  -0.004842947
C        0.282653521   0.506764154  -0.004711245
C        0.362628898   0.414813567  -0.004576486
C        0.564743815   0.414990962  -0.004757483
C        0.738047409   0.507722363  -0.004762560
C        0.836673868   0.428284349  -0.005984790
C       -0.001720919   0.752471178  -0.001155985
C        0.092617144   0.672840458  -0.003393170
C        0.266766625   0.753608095  -0.002706701
C        0.364639641   0.675413400  -0.003517875
C        0.533493937   0.768623803  -0.004056807
Br       0.686514069   0.725573503   0.163558744
C        0.741762096   0.765582319   0.017655227
C        0.824865894   0.673682891  -0.000120254
C        0.086930394   0.918619562   0.001347135
C        0.344073219   0.918470227  -0.002432845
C        0.600331860   0.930417125  -0.003624996
C        0.842646575   0.932252210   0.005672761
O        0.182847193   0.478437484   0.214054829
O        0.244246895   0.396351126   0.220608855
K_POINTS automatic 
  20 20 1   0 0 0 

