 &CONTROL
                 calculation = 'scf' ,
                      outdir = './tmp/' ,
                  pseudo_dir = '/home/deleted/pseudo_psl' ,
                      prefix = 'GCl_ip' ,
                   verbosity = 'high' ,
               etot_conv_thr = 1.0D-5 ,
               forc_conv_thr = 4.0D-4 ,
                       nstep = 1000 ,
                    dipfield = .true. ,
 /
 &SYSTEM
                       ibrav = 4,
                           A = 9.88 ,
                           C = 15 ,
                         nat = 33,
                        ntyp = 3,
                     ecutwfc = 40.424239707 ,
                     ecutrho = 404.24239707 ,
                 occupations = 'smearing' ,
                     degauss = 0.01 ,
				   input_dft = 'vdW-DF' ,
 /
 &ELECTRONS
            electron_maxstep = 50001,
                    conv_thr = 1.0D-6 ,
                 mixing_mode = 'local-TF' ,
                 mixing_beta = 0.5 ,
 /
ATOMIC_SPECIES
    C   12.01100  C.revpbe-n-kjpaw_psl.0.1.UPF 
   Cl   35.45200  Cl.revpbe-n-kjpaw_psl.0.3.0.UPF 
    O   15.99940  O.revpbe-n-kjpaw_psl.0.1.UPF 
ATOMIC_POSITIONS crystal 
C        0.001946098   0.002787854   0.000495276
C        0.254580453   0.009160906   0.001749366
C        0.500841756   0.002787854   0.000495276
C        0.748954133  -0.002091733  -0.001621144
C       -0.001062452   0.250429271   0.000727782
C        0.084651901   0.170333401   0.000728046
C        0.253198853   0.258155615   0.001981023
C        0.337761370   0.175522741   0.001603943
C        0.504956762   0.258155615   0.001981023
C        0.585681499   0.170333401   0.000728046
C        0.751491722   0.250429271   0.000727782
C        0.832103652   0.164207303  -0.000328468
C        0.001288546   0.502577093   0.002309997
C        0.079589057   0.416900816   0.002109977
C        0.244032788   0.501839830   0.004215713
C        0.324290666   0.422871579   0.004854853
C        0.598580912   0.422871579   0.004854853
C        0.757807042   0.501839830   0.004215713
C        0.837311758   0.416900816   0.002109977
C        0.006882097   0.756268303   0.003282492
C        0.085274461   0.670548925   0.003411780
C        0.249386205   0.756268303   0.003282492
C        0.328791727   0.671188467   0.003523447
C        0.488369964   0.750358383   0.000460028
Cl       0.545988601   0.591977205  -0.001664093
C        0.761988418   0.750358383   0.000460028
C        0.842396739   0.671188467   0.003523447
C        0.087662268   0.922800397   0.001970658
C        0.335138128   0.922800397   0.001970658
C        0.581823132   0.915049432  -0.001093948
C        0.833226299   0.915049432  -0.001093948
O        0.530889010   0.561778019   0.181322913
O        0.457509761   0.415019523   0.166705014
K_POINTS automatic 
  16 16 1   0 0 0 

