 &CONTROL
                 calculation = 'nscf' ,
                      outdir = './tmp/' ,
                  pseudo_dir = '/home/deleted/pseudo_psl' ,
                      prefix = 'GF_ip' ,
                   verbosity = 'high' ,
               etot_conv_thr = 1.0D-5 ,
               forc_conv_thr = 4.0D-4 ,
                       nstep = 1000 ,
                    dipfield = .true. ,
 /
 &SYSTEM
                       ibrav = 4,
                           A = 9.88 ,
                           C = 15 ,
                         nat = 32,
                        ntyp = 3,
                     ecutwfc = 40.424239707 ,
                     ecutrho = 404.24239707 ,
                 occupations = 'tetrahedra' ,
                     degauss = 0.01 ,
				   input_dft = 'vdW-DF' ,
    nspin = 2 ,
    starting_magnetization(1) = 0.5,
    starting_magnetization(2) = 0.5,
    starting_magnetization(3) = 0.5,
 /
 &ELECTRONS
            electron_maxstep = 50001,
                    conv_thr = 1.0D-6 ,
                 mixing_mode = 'local-TF' ,
                 mixing_beta = 0.5 ,
 /
ATOMIC_SPECIES
    C   12.01100  C.revpbe-n-kjpaw_psl.0.1.UPF 
    F   18.99800  F.revpbe-n-kjpaw_psl.0.1.UPF 
    O   15.99940  O.revpbe-n-kjpaw_psl.0.1.UPF 
ATOMIC_POSITIONS (crystal)
C        0.001577124   0.000859062   0.002666014
C        0.248283899  -0.003432203   0.012040514
C        0.499281937   0.000859062   0.002666014
C        0.752469034   0.004938067  -0.012726494
C        0.001100708   0.250780292   0.003607128
C        0.083222570   0.166157691   0.007413800
C        0.248170348   0.245331969   0.017135948
C        0.330464390   0.160928779   0.018431396
C        0.497161621   0.245331969   0.017135948
C        0.582935120   0.166157691   0.007413800
C        0.749679582   0.250780292   0.003607128
C        0.834472656   0.168945313  -0.002242025
C       -0.000723763   0.498552475   0.004202509
C        0.085109503   0.416295441   0.005371443
C        0.255135428   0.497032831   0.007955354
C        0.331265881   0.409102460   0.020434045
C        0.577836578   0.409102460   0.020434045
C        0.741897403   0.497032831   0.007955354
C        0.831185937   0.416295441   0.005371443
C       -0.001863194   0.748124182   0.004842657
C        0.082473792   0.664947586   0.006573490
C        0.249987376   0.748124182   0.004842657
C        0.336581926   0.664284875  -0.001764873
C        0.494292125   0.762511799  -0.017287475
F        0.597002554   0.694005110  -0.056733246
C        0.768219674   0.762511799  -0.017287475
C        0.827702948   0.664284875  -0.001764873
C        0.081394425   0.914323208   0.006836683
C        0.332928781   0.914323208   0.006836683
C        0.585899731   0.922399665  -0.011433334
C        0.836499933   0.922399665  -0.011433334
O        0.491687298   0.483374597   0.038899076
K_POINTS automatic 
  20 20 1   0 0 0 

