 &CONTROL
                 calculation = 'bands' ,
                      outdir = './tmp/' ,
                  pseudo_dir = '/home/deleted/pseudo_psl' ,
                      prefix = 'GI_ip' ,
                   verbosity = 'high' ,
               etot_conv_thr = 1.0D-5 ,
               forc_conv_thr = 4.0D-4 ,
                       nstep = 1000 ,
                    dipfield = .true. ,
 /
 &SYSTEM
                       ibrav = 4,
                           A = 9.88 ,
                           C = 15 ,
                         nat = 33,
                        ntyp = 3,
                     ecutwfc = 40.424239707 ,
                     ecutrho = 404.24239707 ,
                 occupations = 'tetrahedra' ,
                     degauss = 0.01 ,
				   input_dft = 'vdW-DF' ,
    nspin = 2 ,
    starting_magnetization(1) = 0.5,
    starting_magnetization(2) = 0.5,
    starting_magnetization(3) = 0.5,
 /
 &ELECTRONS
            electron_maxstep = 50001,
                    conv_thr = 1.0D-6 ,
                 mixing_mode = 'local-TF' ,
                 mixing_beta = 0.5 ,
 /
ATOMIC_SPECIES
    C   12.01100  C.revpbe-n-kjpaw_psl.0.1.UPF 
    I  126.90400  I.revpbe-n-kjpaw_psl.0.2.UPF 
    O   15.99940  O.revpbe-n-kjpaw_psl.0.1.UPF 
ATOMIC_POSITIONS (crystal)
C       -0.001515948   0.002395381   0.004444171
C        0.251021177   0.009314041   0.007829264
C        0.496648255   0.002236319   0.003642310
C        0.744930870  -0.002784367  -0.005808687
C       -0.005580969   0.249154952   0.010820192
C        0.080290724   0.169505309   0.003633369
C        0.247077698   0.255938084  -0.008171995
C        0.333589044   0.174524613  -0.005857720
C        0.501552156   0.255898110  -0.006655754
C        0.581961440   0.169353369   0.004457468
C        0.747460810   0.249068159   0.011819763
C        0.827579253   0.162425624   0.007863744
C       -0.002506554   0.501842084   0.026927503
C        0.075288324   0.415968174   0.017881236
C        0.236592491   0.500711885   0.000594485
C        0.311617329   0.418819465  -0.019244549
C        0.599606006   0.419112605  -0.015255365
C        0.756394645   0.500678511   0.004780194
C        0.833468460   0.415764339   0.019975854
C        0.003577371   0.755981622   0.019968623
C        0.081518936   0.669898249   0.026926858
C        0.245194658   0.755779578   0.017882761
C        0.321751642   0.671026952   0.000603200
C        0.478669819   0.752923454  -0.019222196
I        0.540294407   0.585876918  -0.063307037
C        0.766373659   0.752632658  -0.015261867
C        0.841588303   0.671067465   0.004776633
C        0.084267706   0.922671360   0.011791387
C        0.331131915   0.922585080   0.010803375
C        0.577015844   0.915804951  -0.008130194
C        0.831527435   0.915845132  -0.006635519
O        0.531659172   0.585859840   0.159346306
O        0.416620584   0.585453423   0.196782186
K_POINTS automatic 
  20 20 1   0 0 0 

