 &CONTROL
                 calculation = 'scf' ,
                      outdir = './tmp/' ,
                  pseudo_dir = '/home/deleted/pseudo_psl' ,
                      prefix = 'PG_txc' ,
                    dipfield = .true. ,
                   verbosity = 'high',
                       nstep = 1000,
               forc_conv_thr = 4.0D-4,
               etot_conv_thr = 1.0D-5
 /
 &SYSTEM
                       ibrav = 4,
                           A = 9.88 ,
                           C = 15 ,
                         nat = 34,
                        ntyp = 2,
                     ecutwfc = 40.424239707 ,
                     ecutrho = 404.24239707 ,
                 occupations = 'smearing' ,
                     degauss = 0.01 ,
				   input_dft = 'vdW-DF' ,
    nspin = 2 ,
    starting_magnetization(1) = 0.5,
	starting_magnetization(2) = 0.5,
 /
 &ELECTRONS
            electron_maxstep = 50001,
                    conv_thr = 1.0D-6 ,
                 mixing_mode = 'local-TF' ,
                 mixing_beta = 0.5 ,
 /
ATOMIC_SPECIES
    C   12.01100  C.revpbe-n-kjpaw_psl.0.1.UPF 
    O   15.99940  O.revpbe-n-kjpaw_psl.0.1.UPF 
ATOMIC_POSITIONS crystal 
C       -0.000210497  -0.000481144  -0.007220139
C        0.250564374  -0.000565391  -0.008230082
C        0.500630028   0.000629394  -0.003817834
C        0.748537239  -0.000004079  -0.000207963
C        0.000188257   0.249810975  -0.008150991
C        0.083145411   0.166855611  -0.008150835
C        0.250480106   0.250209429  -0.007220144
C        0.333681257   0.166946443  -0.008518088
C        0.499703481   0.249675547  -0.008778199
C        0.583629031   0.166990589  -0.008778228
C        0.749653329   0.249720250  -0.008518349
C        0.832851838   0.166456728  -0.007220328
C        0.000278834   0.500345980  -0.008518414
C        0.083544396   0.417149042  -0.007220371
C        0.250003239   0.501461996  -0.000208112
C        0.334797773   0.416672100  -0.000207875
C        0.499016450   0.496137548   0.004971911
C        0.582703625   0.416037657  -0.003817976
C        0.750429431   0.499570145  -0.004526176
C        0.832768157   0.417232661  -0.008230400
C        0.000323257   0.750295467  -0.008778198
C        0.083010643   0.666371947  -0.008778270
C        0.249369602   0.749369369  -0.003817936
C        0.329472166   0.665684920   0.004972044
C        0.496640809   0.753358889   0.033307250
C        0.586692648   0.663307745   0.033307149
C        0.753861855   0.750982905   0.004971936
C        0.833963220   0.667297040  -0.003818030
C        0.083054736   0.916319892  -0.008518131
C        0.332904571   0.917096206  -0.004525890
C        0.584315668   0.920528503   0.004972070
C        0.833328948   0.915203377  -0.000207937
O        0.586392945   0.663606639   0.134741240
O        0.496939833   0.753058959   0.134741298
K_POINTS automatic 
  16 16 1   0 0 0 

