 &CONTROL
                 calculation = 'bands' ,
                      outdir = './tmp/' ,
                  pseudo_dir = '/home/deleted/pseudo_psl' ,
                      prefix = 'GBr_op' ,
                   verbosity = 'high' ,
               etot_conv_thr = 1.0D-5 ,
               forc_conv_thr = 4.0D-4 ,
                       nstep = 1000 ,
                    dipfield = .true. ,
 /
 &SYSTEM
                       ibrav = 4,
                           A = 9.88 ,
                           C = 15 ,
                         nat = 33,
                        ntyp = 3,
                     ecutwfc = 40.424239707 ,
                     ecutrho = 404.24239707 ,
                 occupations = 'tetrahedra' ,
                     degauss = 0.01 ,
				   input_dft = 'vdW-DF' ,
 /
 &ELECTRONS
            electron_maxstep = 50001,
                    conv_thr = 1.0D-6 ,
                 mixing_mode = 'local-TF' ,
                 mixing_beta = 0.5 ,
 /
ATOMIC_SPECIES
    C   12.01100  C.revpbe-n-kjpaw_psl.0.1.UPF 
   Br   79.90350  Br.revpbe-n-kjpaw_psl.0.2.UPF 
    O   15.99940  O.revpbe-n-kjpaw_psl.0.1.UPF 
ATOMIC_POSITIONS crystal 
C        0.004012543   0.009973185  -0.000589857
C        0.254442061   0.010336328  -0.008090502
C        0.501742314   0.004448534   0.008632243
C        0.758871756   0.014217517   0.025171421
C       -0.006693036   0.252633460  -0.023982024
C        0.082853387   0.174325857  -0.019948049
C        0.251818310   0.260539061  -0.021977635
C        0.336418395   0.178565499  -0.004936214
C        0.502378953   0.259368767   0.012236141
C        0.584017316   0.171981752   0.008269737
C        0.749287329   0.256464217   0.000593070
C        0.833777586   0.173997960  -0.000794191
C       -0.009904321   0.504972059  -0.028679751
C        0.063127420   0.413647031  -0.044185293
C        0.224249167   0.493360361  -0.055825147
C        0.314167966   0.424022902  -0.036445114
C        0.595206978   0.414732747   0.037027799
C        0.754033501   0.508387178   0.023593937
C        0.831245161   0.424574553  -0.004971613
C        0.000863626   0.759765127  -0.004789527
C        0.078497732   0.674435584  -0.025284353
C        0.244769361   0.756783680  -0.026205070
C        0.312100396   0.658348461  -0.040927420
C        0.446682368   0.676932094  -0.005624747
Br       0.690215276   0.707516894   0.182056934
C        0.790889606   0.776292466   0.065969971
C        0.844328215   0.679488632   0.028992579
C        0.087278080   0.926812156  -0.006369970
C        0.333942286   0.920827320  -0.006598501
C        0.596149881   0.937623969   0.027707032
C        0.846490858   0.931278526   0.032581796
O        0.532467209   0.782773312   0.055483869
O        0.460958676   0.546202853  -0.008914194
K_POINTS crystal_b 
4
0.0000000000    0.0000000000    0.0000000000 17
0.0000000000    0.5000000000    0.0000000000 10
0.3333333333    0.3333333333    0.0000000000 20
0.0000000000    0.0000000000    0.0000000000 1

