 &CONTROL
                 calculation = 'scf' ,
                      outdir = './tmp/' ,
                  pseudo_dir = '/home/deleted/pseudo_psl' ,
                      prefix = 'HOOH' ,
                    dipfield = .true. ,
                   verbosity = 'high',
                       nstep = 1000,
               forc_conv_thr = 4.0D-4,
               etot_conv_thr = 1.0D-5
 /
 &SYSTEM
                       ibrav = 4,
                           A = 9.88 ,
                           C = 15 ,
                         nat = 4,
                        ntyp = 2,
                     ecutwfc = 40.424239707 ,
                     ecutrho = 404.24239707 ,
                 occupations = 'smearing' ,
                     degauss = 0.01 ,
				   input_dft = 'vdW-DF' ,
 /
 &ELECTRONS
            electron_maxstep = 50001,
                    conv_thr = 1.0D-6 ,
                 mixing_mode = 'local-TF' ,
                 mixing_beta = 0.5 ,
 /
ATOMIC_SPECIES
    O   15.99940  O.revpbe-n-kjpaw_psl.0.1.UPF 
    H   1.007840  H.revpbe-kjpaw_psl.0.1.UPF
ATOMIC_POSITIONS crystal 
H        0.000000000   0.000000000   0.000000000    0   0   0
O        0.020035478   0.107286441   0.000000000
O       -0.147444409   0.070427662   0.000000000
H       -0.127436449   0.177706160   0.000000000
K_POINTS automatic 
  16 16 1   0 0 0 

