 &CONTROL
                 calculation = 'bands' ,
                      outdir = './tmp/' ,
                  pseudo_dir = '/home/deleted/pseudo_psl' ,
                      prefix = 'GCl_ip' ,
                   verbosity = 'high' ,
               etot_conv_thr = 1.0D-5 ,
               forc_conv_thr = 4.0D-4 ,
                       nstep = 1000 ,
                    dipfield = .true. ,
 /
 &SYSTEM
                       ibrav = 4,
                           A = 9.88 ,
                           C = 15 ,
                         nat = 33,
                        ntyp = 3,
                     ecutwfc = 40.424239707 ,
                     ecutrho = 404.24239707 ,
                 occupations = 'tetrahedra' ,
                     degauss = 0.01 ,
				   input_dft = 'vdW-DF' ,
 /
 &ELECTRONS
            electron_maxstep = 50001,
                    conv_thr = 1.0D-6 ,
                 mixing_mode = 'local-TF' ,
                 mixing_beta = 0.5 ,
 /
ATOMIC_SPECIES
    C   12.01100  C.revpbe-n-kjpaw_psl.0.1.UPF 
   Cl   35.45200  Cl.revpbe-n-kjpaw_psl.0.3.0.UPF 
    O   15.99940  O.revpbe-n-kjpaw_psl.0.1.UPF 
ATOMIC_POSITIONS crystal 
C        0.003809826   0.004980391   0.007648352
C        0.249326618  -0.001346765   0.016800898
C        0.501170566   0.004980391   0.007648352
C        0.754774216   0.009548433  -0.012064331
C        0.004564637   0.255194260   0.006676760
C        0.086972905   0.171283815   0.011088267
C        0.254126051   0.251274612   0.015261629
C        0.331103471   0.162206942   0.017968448
C        0.497148561   0.251274612   0.015261629
C        0.584310909   0.171283815   0.011088267
C        0.750629623   0.255194260   0.006676760
C        0.836698320   0.173396640   0.000850322
C        0.001337380   0.502674761   0.007818443
C        0.090648760   0.420779455   0.007274361
C        0.263574433   0.501541376   0.004644233
C        0.346253114   0.413664879   0.010620031
C        0.567411764   0.413664879   0.010620031
C        0.737966943   0.501541376   0.004644233
C        0.830130693   0.420779455   0.007274361
C       -0.000873153   0.750758454   0.010330162
C        0.083820750   0.667641501   0.012255433
C        0.251631607   0.750758454   0.010330162
C        0.337477447   0.669153953  -0.002186467
C        0.494824021   0.766037995  -0.023727842
Cl       0.593144620   0.686289242  -0.085144369
C        0.771213973   0.766037995  -0.023727842
C        0.831676505   0.669153953  -0.002186467
C        0.082483187   0.917027534   0.012559852
C        0.334544347   0.917027534   0.012559852
C        0.586589684   0.926865572  -0.011114191
C        0.840275887   0.926865572  -0.011114191
O        0.568834168   0.637668337   0.181787477
O        0.496097881   0.492195765   0.161577384
K_POINTS crystal_b 
4
0.0000000000    0.0000000000    0.0000000000 17
0.0000000000    0.5000000000    0.0000000000 10
0.3333333333    0.3333333333    0.0000000000 20
0.0000000000    0.0000000000    0.0000000000 1

