 &CONTROL
                 calculation = 'bands' ,
                      outdir = './tmp/' ,
                  pseudo_dir = '/home/deleted/pseudo_psl' ,
                      prefix = 'GI_op' ,
                   verbosity = 'high' ,
               etot_conv_thr = 1.0D-5 ,
               forc_conv_thr = 4.0D-4 ,
                       nstep = 1000 ,
                    dipfield = .true. ,
 /
 &SYSTEM
                       ibrav = 4,
                           A = 9.88 ,
                           C = 15 ,
                         nat = 33,
                        ntyp = 3,
                     ecutwfc = 40.424239707 ,
                     ecutrho = 404.24239707 ,
                 occupations = 'tetrahedra' ,
                     degauss = 0.01 ,
				   input_dft = 'vdW-DF' ,
 /
 &ELECTRONS
            electron_maxstep = 50001,
                    conv_thr = 1.0D-6 ,
                 mixing_mode = 'local-TF' ,
                 mixing_beta = 0.5 ,
 /
ATOMIC_SPECIES
    C   12.01100  C.revpbe-n-kjpaw_psl.0.1.UPF 
    I  126.90400  I.revpbe-n-kjpaw_psl.0.2.UPF 
    O   15.99940  O.revpbe-n-kjpaw_psl.0.1.UPF 
ATOMIC_POSITIONS crystal 
C       -0.002198398  -0.013274361  -0.001887548
C        0.244113914  -0.023610125  -0.001901362
C        0.500523417  -0.013266301  -0.003935978
C        0.756651634   0.001890153  -0.003957625
C        0.006593374   0.243301500  -0.001814193
C        0.084094391   0.153951907  -0.001388598
C        0.251013089   0.230638509  -0.000903542
C        0.325227861   0.138731248  -0.001240672
C        0.491231393   0.230539390  -0.001558492
C        0.581457162   0.153857383  -0.002675833
C        0.748253519   0.243253050  -0.002507735
C        0.837969590   0.164372600  -0.003004543
C        0.000231433   0.488733018  -0.001799989
C        0.095117642   0.408146509  -0.001623547
C        0.272609404   0.486061739  -0.001893263
C        0.350711088   0.392842849  -0.001168584
C        0.553717496   0.392767072  -0.001390546
C        0.724969008   0.485915813  -0.001705461
C        0.824660775   0.408092959  -0.001777484
C       -0.013207075   0.732578711  -0.002061424
C        0.082011549   0.652086586  -0.002245028
C        0.257450452   0.732539173  -0.003072602
C        0.356830315   0.654773936  -0.003335471
C        0.528281343   0.747938176  -0.004067846
I        0.569606757   0.802329558   0.229853964
C        0.731248329   0.748002757  -0.003011779
C        0.809506731   0.654778721  -0.002195598
C        0.075197416   0.897410618  -0.001795185
C        0.333893540   0.897442134  -0.003171470
C        0.590830194   0.910166038  -0.005004679
C        0.830835397   0.910060559  -0.003135431
O        0.725774166   1.006991635   0.197310043
O        0.365662331   0.767136313   0.209068049
K_POINTS crystal_b 
4
0.0000000000    0.0000000000    0.0000000000 17
0.0000000000    0.5000000000    0.0000000000 10
0.3333333333    0.3333333333    0.0000000000 20
0.0000000000    0.0000000000    0.0000000000 1

