 &CONTROL
                 calculation = 'relax' ,
                      outdir = './tmp/' ,
                  pseudo_dir = '/home/deleted/pseudo_psl' ,
                      prefix = 'GF_op' ,
                   verbosity = 'high' ,
               etot_conv_thr = 1.0D-5 ,
               forc_conv_thr = 4.0D-4 ,
                       nstep = 1000 ,
                    dipfield = .true. ,
 /
 &SYSTEM
                       ibrav = 4,
                           A = 9.88 ,
                           C = 15 ,
                         nat = 34,
                        ntyp = 4,
                     ecutwfc = 40.424239707 ,
                     ecutrho = 404.24239707 ,
                 occupations = 'smearing' ,
                     degauss = 0.01 ,
				   input_dft = 'vdW-DF' ,
 /
 &ELECTRONS
            electron_maxstep = 50001,
                    conv_thr = 1.0D-6 ,
                 mixing_mode = 'local-TF' ,
                 mixing_beta = 0.5 ,
 /
 &IONS
                ion_dynamics = 'bfgs' ,
 /
ATOMIC_SPECIES
    C   12.01100  C.revpbe-n-kjpaw_psl.0.1.UPF 
    F   18.99800  F.revpbe-n-kjpaw_psl.0.1.UPF 
    O   15.99940  O.revpbe-n-kjpaw_psl.0.1.UPF 
	H   1.00800   H.revpbe-kjpaw_psl.0.1.UPF
ATOMIC_POSITIONS crystal 
C       -0.003116755   0.005352341  -0.003978436
C        0.242218501  -0.004754912  -0.007385441
C        0.498550275   0.005406024  -0.008828331
C        0.755283055   0.016861142  -0.004229494
C        0.004663493   0.260176529  -0.008622912
C        0.083512559   0.172400996  -0.008201514
C        0.250293573   0.249315972  -0.009501446
C        0.324548837   0.159103830  -0.008908690
C        0.491159575   0.250920702  -0.009635781
C        0.580546100   0.172709423  -0.009127655
C        0.747766342   0.260235460  -0.010042326
C        0.837213116   0.181324135  -0.008188127
C       -0.000719979   0.505901331  -0.010393959
C        0.093864796   0.426071431  -0.010178570
C        0.268884808   0.504729442  -0.010522394
C        0.350842799   0.413033453  -0.007577710
C        0.553933107   0.412971284  -0.009990075
C        0.728083354   0.505355445  -0.008837556
C        0.825537404   0.425018541  -0.010587741
C       -0.012341186   0.749765881  -0.007064461
C        0.081139060   0.670255917  -0.009499319
C        0.253684096   0.751178193  -0.008847957
C        0.350400582   0.672617802  -0.009242550
C        0.518850649   0.765116881  -0.010733065
F        0.692722097   0.731587996   0.110820223
C        0.732865901   0.762166819   0.018552441
C        0.816285820   0.670303508  -0.004749169
C        0.075772274   0.916440346  -0.004949669
C        0.331793104   0.916257356  -0.008474627
C        0.587042631   0.926434578  -0.008085355
C        0.832059006   0.930947987   0.002206488
O        0.387837468   0.417851419   0.150213899
O        0.385490196   0.530276088   0.187924615
H        0.346270031   0.502396337   0.082088767
K_POINTS automatic 
  4 4 1   0 0 0 

