 &CONTROL
                 calculation = 'scf' ,
                      outdir = './tmp/' ,
                  pseudo_dir = '/home/deleted/pseudo_psl' ,
                      prefix = 'GF_op' ,
                   verbosity = 'high' ,
               etot_conv_thr = 1.0D-5 ,
               forc_conv_thr = 4.0D-4 ,
                       nstep = 1000 ,
                    dipfield = .true. ,
 /
 &SYSTEM
                       ibrav = 4,
                           A = 9.88 ,
                           C = 15 ,
                         nat = 34,
                        ntyp = 4,
                     ecutwfc = 40.424239707 ,
                     ecutrho = 404.24239707 ,
                 occupations = 'smearing' ,
                     degauss = 0.01 ,
				   input_dft = 'vdW-DF' ,
 /
 &ELECTRONS
            electron_maxstep = 50001,
                    conv_thr = 1.0D-6 ,
                 mixing_mode = 'local-TF' ,
                 mixing_beta = 0.5 ,
 /
ATOMIC_SPECIES
    C   12.01100  C.revpbe-n-kjpaw_psl.0.1.UPF 
    F   18.99800  F.revpbe-n-kjpaw_psl.0.1.UPF 
    O   15.99940  O.revpbe-n-kjpaw_psl.0.1.UPF 
	H   1.00800   H.revpbe-kjpaw_psl.0.1.UPF
ATOMIC_POSITIONS crystal 
C       -0.004103988   0.001022852  -0.006082878
C        0.241363658  -0.009016343  -0.009924998
C        0.497713774   0.001220705  -0.011784414
C        0.754462467   0.013077177  -0.007030317
C        0.003915196   0.256141952  -0.011371952
C        0.082529540   0.168172523  -0.010326921
C        0.249520506   0.245471019  -0.012047401
C        0.323537098   0.154605345  -0.011391825
C        0.490017135   0.246571994  -0.012504153
C        0.579535827   0.168488425  -0.012115861
C        0.746768377   0.256102790  -0.013174463
C        0.836196083   0.177234669  -0.011069788
C       -0.001555952   0.501645996  -0.013733749
C        0.092954376   0.421678061  -0.013361918
C        0.268995755   0.499995533  -0.014410796
C        0.349387851   0.408653355  -0.013366663
C        0.552567483   0.408570344  -0.013074285
C        0.726595430   0.501008674  -0.012452765
C        0.824516374   0.420863224  -0.013908455
C       -0.013475882   0.745504290  -0.010204968
C        0.080192353   0.665980896  -0.012933262
C        0.253222483   0.746939844  -0.012339263
C        0.350322519   0.668662255  -0.013024825
C        0.518314863   0.761263463  -0.013814462
F        0.688935871   0.725591180   0.108909338
C        0.730413397   0.757468167   0.014074669
C        0.814625144   0.666137428  -0.008139406
C        0.074723264   0.912023356  -0.007482581
C        0.330933244   0.911832583  -0.011427211
C        0.586463930   0.922742759  -0.011114027
C        0.830882737   0.926514473  -0.000376567
O        0.377677151   0.475082820   0.175550497
O        0.289590815   0.547695796   0.177457539
H        0.485197810   0.560782070   0.163420235
K_POINTS automatic 
  16 16 1   0 0 0 