 &CONTROL
                 calculation = 'scf' ,
                      outdir = './tmp_subs/' ,
                  pseudo_dir = '/home/deleted/pseudo_psl' ,
                      prefix = 'GF_op_subs' ,
                   verbosity = 'high' ,
               etot_conv_thr = 1.0D-5 ,
               forc_conv_thr = 4.0D-4 ,
                       nstep = 1000 ,
                    dipfield = .true. ,
 /
 &SYSTEM
                       ibrav = 4,
                           A = 9.88 ,
                           C = 15 ,
                         nat = 31,
                        ntyp = 2,
                     ecutwfc = 40.424239707 ,
                     ecutrho = 404.24239707 ,
                 occupations = 'smearing' ,
                     degauss = 0.01 ,
				   input_dft = 'vdW-DF' ,
 /
 &ELECTRONS
            electron_maxstep = 50001,
                    conv_thr = 1.0D-6 ,
                 mixing_mode = 'local-TF' ,
                 mixing_beta = 0.5 ,
 /
ATOMIC_SPECIES
    C   12.01100  C.revpbe-n-kjpaw_psl.0.1.UPF 
    F   18.99800  F.revpbe-n-kjpaw_psl.0.1.UPF 
ATOMIC_POSITIONS crystal 
C       -0.004093206   0.001217092  -0.002846744
C        0.242649848  -0.003527085   0.004276491
C        0.493931496   0.001310952   0.010893929
C        0.744595129   0.002505895   0.002880869
C       -0.002935730   0.252045319  -0.000116200
C        0.079299716   0.167946961   0.001804686
C        0.246960848   0.249288736   0.003081820
C        0.324235109   0.160072187   0.003520987
C        0.490166353   0.248701708   0.002181884
C        0.576563635   0.167606848   0.003172366
C        0.742919889   0.251983598   0.001861337
C        0.828244428   0.169002479   0.000686820
C       -0.005915519   0.499978256   0.000371496
C        0.083253019   0.418019639   0.002871675
C        0.257810540   0.500867176   0.010676951
C        0.338816320   0.411601778   0.005021229
C        0.561126668   0.411339510  -0.001505552
C        0.730457154   0.499649418  -0.008390302
C        0.822414049   0.417879375  -0.002109190
C       -0.007567053   0.748625430  -0.004543090
C        0.077035053   0.665570592   0.001525789
C        0.244371666   0.747992672   0.010304940
C        0.329519765   0.667505059   0.022287588
C        0.489728714   0.761952424   0.049772320
F        0.614977393   0.690644414  -0.072543777
C        0.759427976   0.761716751  -0.033494538
C        0.825865499   0.667967655  -0.017067871
C        0.075719122   0.914644317  -0.001629425
C        0.327019517   0.915029234   0.010349110
C        0.580270921   0.921935541   0.021075292
C        0.829922787   0.921012659  -0.012071780
K_POINTS automatic 
  16 16 1   0 0 0 

