 &CONTROL
                 calculation = 'relax' ,
                      outdir = './tmp/' ,
                  pseudo_dir = '/home/deleted/pseudo_psl' ,
                      prefix = 'GF_op' ,
                   verbosity = 'high' ,
               etot_conv_thr = 1.0D-5 ,
               forc_conv_thr = 4.0D-4 ,
                       nstep = 1000 ,
                    dipfield = .true. ,
 /
 &SYSTEM
                       ibrav = 4,
                           A = 9.88 ,
                           C = 15 ,
                         nat = 34,
                        ntyp = 4,
                     ecutwfc = 40.424239707 ,
                     ecutrho = 404.24239707 ,
                 occupations = 'smearing' ,
                     degauss = 0.01 ,
				   input_dft = 'vdW-DF' ,
 /
 &ELECTRONS
            electron_maxstep = 50001,
                    conv_thr = 1.0D-6 ,
                 mixing_mode = 'local-TF' ,
                 mixing_beta = 0.5 ,
 /
 &IONS
                ion_dynamics = 'bfgs' ,
 /
ATOMIC_SPECIES
    C   12.01100  C.revpbe-n-kjpaw_psl.0.1.UPF 
    F   18.99800  F.revpbe-n-kjpaw_psl.0.1.UPF 
    O   15.99940  O.revpbe-n-kjpaw_psl.0.1.UPF 
	H   1.00800   H.revpbe-kjpaw_psl.0.1.UPF
ATOMIC_POSITIONS crystal 
C       -0.032884622  -0.030695809  -0.000918472
C        0.218241913  -0.029940879   0.008574732
C        0.470474491  -0.023842101   0.015714261
C        0.717530006  -0.026460361  -0.001246997
C       -0.030295555   0.225805333  -0.003089988
C        0.051924117   0.140172081   0.018711985
C        0.224017572   0.224557445   0.005721886
C        0.301524588   0.134118559   0.006554415
C        0.466415494   0.221895321   0.004837571
C        0.552899554   0.141820275   0.006634630
C        0.717229962   0.225647046  -0.000515296
C        0.803101955   0.142133175  -0.001315178
C       -0.033239492   0.472790894  -0.003716034
C        0.053093481   0.389266351   0.000659061
C        0.227026358   0.473630678   0.013540856
C        0.309373463   0.382820851   0.003850604
C        0.541829538   0.386059146  -0.005110407
C        0.706193071   0.471532570  -0.017190654
C        0.796639345   0.390103461  -0.008876161
C       -0.033139544   0.721857535  -0.007070785
C        0.051064971   0.639757110   0.000085137
C        0.216742606   0.718676531   0.014251399
C        0.299287367   0.635739476   0.027248622
C        0.468837597   0.731155721   0.052870560
F        0.585446759   0.661460448  -0.075890096
C        0.732764911   0.733181709  -0.039504753
C        0.800315632   0.639726753  -0.024411654
C        0.049878003   0.887274527   0.001143289
C        0.302236867   0.887794283   0.014780555
C        0.557277322   0.896817741   0.018269356
C        0.803950938   0.891936917  -0.015770543
O        1.056098667   1.171361726   0.125940853
O        0.532150877   0.684374738   0.104489934
H        1.096135218   1.110471140   0.164450200
K_POINTS automatic 
  4 4 1   0 0 0 

