 &CONTROL
                 calculation = 'relax' ,
                      outdir = './tmp/' ,
                  pseudo_dir = '/home/deleted/pseudo_psl' ,
                      prefix = 'GF_op' ,
                   verbosity = 'high' ,
               etot_conv_thr = 1.0D-5 ,
               forc_conv_thr = 4.0D-4 ,
                       nstep = 1000 ,
                    dipfield = .true. ,
 /
 &SYSTEM
                       ibrav = 4,
                           A = 9.88 ,
                           C = 15 ,
                         nat = 34,
                        ntyp = 4,
                     ecutwfc = 40.424239707 ,
                     ecutrho = 404.24239707 ,
                 occupations = 'smearing' ,
                     degauss = 0.01 ,
				   input_dft = 'vdW-DF' ,
 /
 &ELECTRONS
            electron_maxstep = 50001,
                    conv_thr = 1.0D-6 ,
                 mixing_mode = 'local-TF' ,
                 mixing_beta = 0.5 ,
 /
 &IONS
                ion_dynamics = 'bfgs' ,
 /
ATOMIC_SPECIES
    C   12.01100  C.revpbe-n-kjpaw_psl.0.1.UPF 
    F   18.99800  F.revpbe-n-kjpaw_psl.0.1.UPF 
    O   15.99940  O.revpbe-n-kjpaw_psl.0.1.UPF 
	H   1.00800   H.revpbe-kjpaw_psl.0.1.UPF
ATOMIC_POSITIONS crystal 
C       -0.009099903  -0.008249297  -0.004568511
C        0.238029513  -0.013350424   0.002693582
C        0.489578241  -0.009004049   0.005243313
C        0.739347136  -0.007573814  -0.005172252
C       -0.008538376   0.242364530  -0.000402800
C        0.073828564   0.158363182   0.002750980
C        0.241779309   0.239701624   0.006114540
C        0.319760365   0.150853263   0.004246747
C        0.485521514   0.239134402   0.001417174
C        0.571605083   0.157678872  -0.000345713
C        0.737636636   0.241731671  -0.001966199
C        0.823210186   0.159080855  -0.003566684
C       -0.011724188   0.490419627  -0.000590665
C        0.076909209   0.408333650   0.003475341
C        0.251421113   0.491387080   0.011345857
C        0.332537978   0.402015872   0.007964494
C        0.556779253   0.401897715  -0.002944720
C        0.725428845   0.490105888  -0.010104032
C        0.817071399   0.408037687  -0.004135052
C       -0.012443868   0.739976891  -0.006641885
C        0.071897348   0.656649559  -0.000206519
C        0.239286235   0.737804334   0.007989558
C        0.323814210   0.657193793   0.020019452
C        0.490906410   0.748035234   0.041547144
F        0.615931761   0.683776771  -0.084961345
C        0.755461951   0.752202488  -0.040266872
C        0.820471226   0.658754083  -0.019709266
C        0.071123557   0.905618033  -0.003666224
C        0.322170347   0.905192898   0.007245463
C        0.575100102   0.911172017   0.009022683
C        0.825917175   0.911168031  -0.017575307
O        0.769486024   0.900821767   0.174527365
O        0.557308374   0.689816278   0.084913801
H        0.702630700   0.821889879   0.220009439
K_POINTS automatic 
  4 4 1   0 0 0 

