 &CONTROL
                 calculation = 'nscf' ,
                      outdir = './tmp/' ,
                  pseudo_dir = '/home/deleted/pseudo_psl' ,
                      prefix = 'GBr_op' ,
                   verbosity = 'high' ,
               etot_conv_thr = 1.0D-5 ,
               forc_conv_thr = 4.0D-4 ,
                       nstep = 1000 ,
                    dipfield = .true. ,
 /
 &SYSTEM
                       ibrav = 4,
                           A = 9.88 ,
                           C = 15 ,
                         nat = 32,
                        ntyp = 3,
                     ecutwfc = 40.424239707 ,
                     ecutrho = 404.24239707 ,
                 occupations = 'tetrahedra' ,
                     degauss = 0.01 ,
				   input_dft = 'vdW-DF' ,
    nspin = 2 ,
    starting_magnetization(1) = 0.5,
    starting_magnetization(2) = 0.5,
    starting_magnetization(3) = 0.5,
 /
 &ELECTRONS
            electron_maxstep = 50001,
                    conv_thr = 1.0D-6 ,
                 mixing_mode = 'local-TF' ,
                 mixing_beta = 0.5 ,
 /
ATOMIC_SPECIES
    C   12.01100  C.revpbe-n-kjpaw_psl.0.1.UPF 
   Br   79.90350  Br.revpbe-n-kjpaw_psl.0.2.UPF 
    O   15.99940  O.revpbe-n-kjpaw_psl.0.1.UPF 
ATOMIC_POSITIONS (crystal)
C       -0.001909026  -0.001089480  -0.004320644
C        0.244301781  -0.011396438  -0.004232236
C        0.500819546  -0.001089480  -0.004320644
C        0.757143164   0.014286327  -0.004377080
C        0.007170083   0.255557265  -0.003873644
C        0.084474963   0.166169020  -0.003954812
C        0.251430542   0.242875346  -0.003905314
C        0.325390364   0.150780729  -0.003920966
C        0.491444804   0.242875346  -0.003905314
C        0.581694056   0.166169020  -0.003954812
C        0.748387182   0.255557265  -0.003873644
C        0.838215807   0.176431615  -0.003904547
C        0.000472173   0.500944348  -0.004267661
C        0.095651959   0.420292784  -0.004105586
C        0.273012618   0.498041788  -0.004338395
C        0.351317717   0.404892215  -0.004112459
C        0.553574497   0.404892215  -0.004112459
C        0.725029170   0.498041788  -0.004338395
C        0.824640824   0.420292784  -0.004105586
C       -0.013176771   0.744637557  -0.004572916
C        0.081977408   0.663954817  -0.004494019
C        0.257814329   0.744637557  -0.004572916
C        0.357295061   0.666846846  -0.004705847
C        0.528813658   0.760172147  -0.004838510
Br       0.606709160   0.713418322   0.213441083
C        0.731358490   0.760172147  -0.004838510
C        0.809551785   0.666846846  -0.004705847
C        0.075320538   0.909437085  -0.004426536
C        0.334116547   0.909437085  -0.004426536
C        0.591124134   0.922274736  -0.004616454
C        0.831150600   0.922274736  -0.004616454
O        0.586322505   0.672645012   0.330281307
K_POINTS automatic 
  20 20 1   0 0 0 

