 &CONTROL
                 calculation = 'bands' ,
                      outdir = './tmp/' ,
                  pseudo_dir = '/home/deleted/pseudo_psl' ,
                      prefix = 'GF_op' ,
                   verbosity = 'high' ,
               etot_conv_thr = 1.0D-5 ,
               forc_conv_thr = 4.0D-4 ,
                       nstep = 1000 ,
                    dipfield = .true. ,
 /
 &SYSTEM
                       ibrav = 4,
                           A = 9.88 ,
                           C = 15 ,
                         nat = 32,
                        ntyp = 3,
                     ecutwfc = 40.424239707 ,
                     ecutrho = 404.24239707 ,
                 occupations = 'tetrahedra' ,
                     degauss = 0.01 ,
				   input_dft = 'vdW-DF' ,
 /
 &ELECTRONS
            electron_maxstep = 50001,
                    conv_thr = 1.0D-6 ,
                 mixing_mode = 'local-TF' ,
                 mixing_beta = 0.5 ,
 /
ATOMIC_SPECIES
    C   12.01100  C.revpbe-n-kjpaw_psl.0.1.UPF 
    F   18.99800  F.revpbe-n-kjpaw_psl.0.1.UPF 
    O   15.99940  O.revpbe-n-kjpaw_psl.0.1.UPF 
ATOMIC_POSITIONS crystal 
C       -0.001743579   0.001493973  -0.000303813
C        0.245185908  -0.003816013   0.007469426
C        0.497040131   0.002114419   0.011219465
C        0.746588431   0.003498798   0.000333553
C       -0.000541136   0.252555194  -0.000484659
C        0.081729503   0.168513170   0.003136608
C        0.249665924   0.249866076   0.004899315
C        0.326731214   0.160215473   0.005973637
C        0.492325584   0.249179765   0.003804883
C        0.578937732   0.168464418   0.003854975
C        0.745113161   0.252660057   0.001366716
C        0.830709184   0.169962117  -0.000693713
C       -0.003797069   0.500336369   0.000896943
C        0.085588882   0.418501874   0.002259842
C        0.260609514   0.501624959   0.009990723
C        0.342225035   0.411968804   0.005759958
C        0.562169819   0.412012177  -0.000257974
C        0.731794277   0.499987306  -0.006719863
C        0.824288764   0.418555362  -0.001560900
C       -0.005718086   0.749088694  -0.000765961
C        0.079127878   0.665928592   0.004170864
C        0.246553181   0.747308224   0.012466746
C        0.331647592   0.666706257   0.021263359
C        0.496269239   0.759271835   0.049980041
F        0.619912775   0.692970899  -0.074698425
C        0.761968258   0.762331299  -0.032754043
C        0.827351835   0.668657241  -0.014216904
C        0.077949623   0.914676110   0.002073535
C        0.329464466   0.915106116   0.012760208
C        0.583004796   0.923038320   0.016765481
C        0.832761440   0.921442539  -0.011443514
O        0.556000183   0.706337700   0.102027714
K_POINTS crystal_b 
4
0.0000000000    0.0000000000    0.0000000000 17
0.0000000000    0.5000000000    0.0000000000 10
0.3333333333    0.3333333333    0.0000000000 20
0.0000000000    0.0000000000    0.0000000000 1

