 &CONTROL
                 calculation = 'nscf' ,
                      outdir = './tmp/' ,
                  pseudo_dir = '/home/deleted/pseudo_psl' ,
                      prefix = 'G_B2' ,
                    dipfield = .true. ,
                   verbosity = 'high',
                       nstep = 1000,
               forc_conv_thr = 4.0D-4,
               etot_conv_thr = 1.0D-5
 /
 &SYSTEM
                       ibrav = 4,
                           A = 9.88 ,
                           C = 15 ,
                         nat = 30,
                        ntyp = 1,
                     ecutwfc = 40.424239707 ,
                     ecutrho = 404.24239707 ,
                 occupations = 'tetrahedra' ,
                     degauss = 0.01 ,
				   input_dft = 'vdW-DF' ,
 /
 &ELECTRONS
            electron_maxstep = 50001,
                    conv_thr = 1.0D-6 ,
                 mixing_mode = 'local-TF' ,
                 mixing_beta = 0.5 ,
 /
ATOMIC_SPECIES
    C   12.01100  C.revpbe-n-kjpaw_psl.0.1.UPF
ATOMIC_POSITIONS crystal 
C       -0.002861351  -0.001235830   0.000000000
C        0.251169442   0.002338883   0.000000000
C        0.501625520  -0.001235830  -0.000000000
C        0.749002139  -0.001995721   0.000000000
C       -0.001924421   0.249809442  -0.000000000
C        0.079584616   0.164869299  -0.000000000
C        0.242274805   0.258131211   0.000000000
C        0.515856405   0.258131211   0.000000000
C        0.585284682   0.164869299  -0.000000000
C        0.751733863   0.249809442  -0.000000000
C        0.832539548   0.165079098   0.000000000
C        0.000793785   0.501587569   0.000000000
C        0.081599470   0.416857225  -0.000000000
C        0.248048651   0.501797368  -0.000000000
C        0.317476928   0.408535456   0.000000000
C        0.591058528   0.408535456   0.000000000
C        0.753748717   0.501797368  -0.000000000
C        0.835257754   0.416857225  -0.000000000
C        0.002021016   0.752517030  -0.000000000
C        0.084331194   0.668662388   0.000000000
C        0.250496014   0.752517030   0.000000000
C        0.331707813   0.667902497  -0.000000000
C        0.498585522   0.744198301   0.000000000
C        0.582163891   0.664327784   0.000000000
C        0.745612779   0.744198301  -0.000000000
C        0.836194684   0.667902497   0.000000000
C        0.087720554   0.922468366  -0.000000000
C        0.334747811   0.922468366   0.000000000
C        0.582837319   0.914149637   0.000000000
C        0.831312317   0.914149637  -0.000000000
K_POINTS automatic 
  20 20 1   0 0 0 

