 &CONTROL
                 calculation = 'bands' ,
                      outdir = './tmp/' ,
                  pseudo_dir = '/home/deleted/pseudo_psl' ,
                      prefix = 'GCl_ip' ,
                   verbosity = 'high' ,
               etot_conv_thr = 1.0D-5 ,
               forc_conv_thr = 4.0D-4 ,
                       nstep = 1000 ,
                    dipfield = .true. ,
 /
 &SYSTEM
                       ibrav = 4,
                           A = 9.88 ,
                           C = 15 ,
                         nat = 34,
                        ntyp = 4,
                     ecutwfc = 40.424239707 ,
                     ecutrho = 404.24239707 ,
                 occupations = 'tetrahedra' ,
                     degauss = 0.01 ,
				   input_dft = 'vdW-DF' ,
 /
 &ELECTRONS
            electron_maxstep = 50001,
                    conv_thr = 1.0D-6 ,
                 mixing_mode = 'local-TF' ,
                 mixing_beta = 0.5 ,
 /
ATOMIC_SPECIES
    C   12.01100  C.revpbe-n-kjpaw_psl.0.1.UPF 
   Cl   35.45200  Cl.revpbe-n-kjpaw_psl.0.3.0.UPF 
    O   15.99940  O.revpbe-n-kjpaw_psl.0.1.UPF 
    H   1.008000  H.revpbe-kjpaw_psl.0.1.UPF
ATOMIC_POSITIONS crystal 
C       -0.006646275  -0.005252031   0.019960998
C        0.242606717  -0.006104954   0.024538491
C        0.495384891  -0.003248213   0.020196817
C        0.744724009  -0.002510805   0.012785446
C       -0.005350311   0.245951762   0.017937757
C        0.075909804   0.161157556   0.024348183
C        0.241912300   0.241256442   0.025376048
C        0.325483519   0.159029016   0.023836066
C        0.492308329   0.243710398   0.016533573
C        0.577686075   0.162753147   0.014279045
C        0.743911928   0.246613973   0.012765409
C        0.827929166   0.163855561   0.013923166
C       -0.006458793   0.495031504   0.013099365
C        0.079409352   0.411853929   0.017431589
C        0.247008329   0.491538676   0.019602237
C        0.324864476   0.406044077   0.021517324
C        0.572754776   0.407488840   0.010342941
C        0.739284041   0.495869662   0.001924578
C        0.826464414   0.413643826   0.009278918
C       -0.007978732   0.745317670   0.015729876
C        0.076722635   0.662430500   0.017744474
C        0.241658485   0.746904583   0.019831189
C        0.335487160   0.664884855   0.007397630
C        0.487290439   0.755897637   0.060396300
Cl       0.633784114   0.702712611  -0.120144668
C        0.763977920   0.759611004  -0.028996741
C        0.827300743   0.664544631  -0.003763466
C        0.076148509   0.911268077   0.020764407
C        0.325611924   0.910572705   0.023593201
C        0.581398939   0.918440405   0.025114529
C        0.830080229   0.914898039   0.002382499
O        0.487780513   0.484215416   0.014960591
O        0.521964185   0.711608789   0.128089085
H        0.375661051   0.687944386  -0.062996700
K_POINTS crystal_b 
4
0.0000000000    0.0000000000    0.0000000000 17
0.0000000000    0.5000000000    0.0000000000 10
0.3333333333    0.3333333333    0.0000000000 20
0.0000000000    0.0000000000    0.0000000000 1

