 &CONTROL
                 calculation = 'bands' ,
                      outdir = './tmp/' ,
                  pseudo_dir = '/home/deleted/pseudo_psl' ,
                      prefix = 'GI_ip' ,
                   verbosity = 'high' ,
               etot_conv_thr = 1.0D-5 ,
               forc_conv_thr = 4.0D-4 ,
                       nstep = 1000 ,
                    dipfield = .true. ,
 /
 &SYSTEM
                       ibrav = 4,
                           A = 9.88 ,
                           C = 15 ,
                         nat = 34,
                        ntyp = 4,
                     ecutwfc = 40.424239707 ,
                     ecutrho = 404.24239707 ,
                 occupations = 'tetrahedra' ,
                     degauss = 0.01 ,
				   input_dft = 'vdW-DF' ,
 /
 &ELECTRONS
            electron_maxstep = 50001,
                    conv_thr = 1.0D-6 ,
                 mixing_mode = 'local-TF' ,
                 mixing_beta = 0.5 ,
 /
ATOMIC_SPECIES
    C   12.01100  C.revpbe-n-kjpaw_psl.0.1.UPF 
    I  126.90400  I.revpbe-n-kjpaw_psl.0.2.UPF 
    O   15.99940  O.revpbe-n-kjpaw_psl.0.1.UPF 
    H   1.008000  H.revpbe-kjpaw_psl.0.1.UPF
ATOMIC_POSITIONS crystal 
C        0.006781917   0.017053029   0.002832494
C        0.255774713   0.015641994   0.008145898
C        0.505899311   0.016770164   0.012786374
C        0.757371383   0.019194770   0.006714674
C        0.006177792   0.266950841   0.010895404
C        0.088774286   0.183166476   0.009764836
C        0.253858569   0.263862820   0.022297588
C        0.338989963   0.181922161   0.008262323
C        0.505398067   0.263458037  -0.007637572
C        0.589950532   0.182701179   0.006061298
C        0.756261088   0.266867664   0.004240873
C        0.839832150   0.184088224   0.007389100
C        0.006097327   0.516858463   0.007426815
C        0.089577543   0.433080991   0.014809943
C        0.255133098   0.513735051   0.030958181
C        0.321819602   0.420194150   0.054005273
C        0.593549628   0.419131091  -0.040114267
C        0.753832506   0.513866838  -0.018031246
C        0.838895877   0.433219773   0.000327027
C        0.004008776   0.765872240  -0.000070501
C        0.089459255   0.683174215   0.007079591
C        0.257824025   0.765686920   0.013747036
C        0.344063408   0.682634888   0.022720420
C        0.510100145   0.771391190   0.013510670
I        0.499604734   0.474254889  -0.156461445
C        0.757105918   0.771627472  -0.003700291
C        0.835046775   0.682936039  -0.011036287
C        0.088266330   0.932162519   0.004863302
C        0.339620353   0.932022735   0.010270830
C        0.590869710   0.935427268   0.011603317
C        0.840400700   0.935568701   0.001909836
O        0.595088262   0.695408995   0.000181326
O        0.447880696   0.482813358   0.109785384
H        0.489167611   0.411749429   0.114590435
K_POINTS crystal_b 
4
0.0000000000    0.0000000000    0.0000000000 17
0.0000000000    0.5000000000    0.0000000000 10
0.3333333333    0.3333333333    0.0000000000 20
0.0000000000    0.0000000000    0.0000000000 1

