 &CONTROL
                 calculation = 'relax' ,
                      outdir = './tmp/' ,
                  pseudo_dir = '/home/deleted/pseudo_psl' ,
                      prefix = 'GBr_ip' ,
                   verbosity = 'high' ,
               etot_conv_thr = 1.0D-5 ,
               forc_conv_thr = 4.0D-4 ,
                       nstep = 1000 ,
                    dipfield = .true. ,
 /
 &SYSTEM
                       ibrav = 4,
                           A = 9.88 ,
                           C = 15 ,
                         nat = 35,
                        ntyp = 4,
                     ecutwfc = 40.424239707 ,
                     ecutrho = 404.24239707 ,
                 occupations = 'smearing' ,
                     degauss = 0.01 ,
				   input_dft = 'vdW-DF' ,
    nspin = 2 ,
    starting_magnetization(1) = 0.5,
    starting_magnetization(2) = 0.5,
    starting_magnetization(3) = 0.5,
	starting_magnetization(4) = 0.5,
 /
 &ELECTRONS
            electron_maxstep = 50001,
                    conv_thr = 1.0D-6 ,
                 mixing_mode = 'local-TF' ,
                 mixing_beta = 0.5 ,
 /
 &IONS
                ion_dynamics = 'bfgs' ,
 /
ATOMIC_SPECIES
    C   12.01100  C.revpbe-n-kjpaw_psl.0.1.UPF 
   Br   79.90350  Br.revpbe-n-kjpaw_psl.0.2.UPF 
    O   15.99940  O.revpbe-n-kjpaw_psl.0.1.UPF 
    H   1.008000  H.revpbe-kjpaw_psl.0.1.UPF
ATOMIC_POSITIONS crystal 
C        0.003466028   0.013261501   0.004409775
C        0.252354093   0.011933879   0.002769834
C        0.502453259   0.013364971   0.011133845
C        0.754787480   0.015856026   0.010792882
C        0.003471794   0.263458610   0.015845078
C        0.086728483   0.179227594   0.012132086
C        0.251778057   0.259099992   0.017907667
C        0.335077629   0.178436619   0.002040401
C        0.503029968   0.260334211  -0.010507023
C        0.586928231   0.179925689   0.005586695
C        0.753266405   0.263961783   0.006910962
C        0.838127075   0.181553987   0.011845046
C        0.002753524   0.513728546   0.009055366
C        0.087461720   0.431193919   0.017713264
C        0.252412100   0.512617904   0.028519351
C        0.324518868   0.418555757   0.056358866
C        0.591891715   0.416090622  -0.040630977
C        0.750606463   0.510525878  -0.016648675
C        0.835129724   0.429741689   0.002581582
C        0.000054671   0.762108701  -0.000675240
C        0.086221434   0.679648088   0.005393482
C        0.254607125   0.762330740   0.010063637
C        0.339927893   0.678560552   0.019876483
C        0.507934451   0.768340231   0.015101288
Br       0.504528050   0.478248560  -0.138911764
C        0.753458290   0.767805787   0.000647040
C        0.831518532   0.679388963  -0.008922921
C        0.085010224   0.928720968   0.002891113
C        0.336698094   0.928803444   0.006130109
C        0.587788621   0.932075884   0.013102398
C        0.837188622   0.932082272   0.005694546
O        0.428533964   0.463331327   0.113818408
O        0.592736199   0.691898523   0.007975395
H        0.466531007   0.470789944   0.213818408
H        0.548632125   0.585073542   0.107975395
K_POINTS automatic 
  4 4 1   0 0 0 

