 &CONTROL
                 calculation = 'scf' ,
                      outdir = './tmp/' ,
                  pseudo_dir = '/home/deleted/pseudo_psl' ,
                      prefix = 'GCl_ip' ,
                   verbosity = 'high' ,
               etot_conv_thr = 1.0D-5 ,
               forc_conv_thr = 4.0D-4 ,
                       nstep = 1000 ,
                    dipfield = .true. ,
 /
 &SYSTEM
                       ibrav = 4,
                           A = 9.88 ,
                           C = 15 ,
                         nat = 34,
                        ntyp = 4,
                     ecutwfc = 40.424239707 ,
                     ecutrho = 404.24239707 ,
                 occupations = 'smearing' ,
                     degauss = 0.01 ,
				   input_dft = 'vdW-DF' ,
 /
 &ELECTRONS
            electron_maxstep = 50001,
                    conv_thr = 1.0D-6 ,
                 mixing_mode = 'local-TF' ,
                 mixing_beta = 0.5 ,
 /
ATOMIC_SPECIES
    C   12.01100  C.revpbe-n-kjpaw_psl.0.1.UPF 
   Cl   35.45200  Cl.revpbe-n-kjpaw_psl.0.3.0.UPF 
    O   15.99940  O.revpbe-n-kjpaw_psl.0.1.UPF 
    H   1.008000  H.revpbe-kjpaw_psl.0.1.UPF
ATOMIC_POSITIONS crystal 
C       -0.000896551   0.000856350  -0.000060155
C        0.247330799   0.000551374   0.015529236
C        0.496182005  -0.000673219   0.009567094
C        0.746802470  -0.000217678  -0.015112433
C       -0.004689298   0.248010457   0.004325618
C        0.080828608   0.166247873   0.011799609
C        0.240872616   0.245869272   0.035324657
C        0.329665988   0.166424935   0.029430410
C        0.495703012   0.244088029   0.029715461
C        0.578905831   0.165031835   0.015173087
C        0.747324304   0.249415271   0.003922115
C        0.830174906   0.165244814  -0.003863695
C       -0.002845572   0.498131812   0.000468476
C        0.079362460   0.414560043   0.005368261
C        0.242505482   0.497259794   0.019359251
C        0.301609066   0.407883637   0.068844642
C        0.585837850   0.414374028   0.038566012
C        0.753115125   0.501483286   0.017951450
C        0.833160924   0.413155158   0.003002595
C       -0.000712145   0.751283335   0.003253456
C        0.079820659   0.665156576   0.007366287
C        0.244596804   0.748904781   0.010043357
C        0.326334968   0.662716070   0.008174401
C        0.485839566   0.755202549  -0.011515286
Cl       0.574529297   0.665748898  -0.075128447
C        0.766632325   0.757224383  -0.026939925
C        0.834775228   0.668545183  -0.007274791
C        0.081636525   0.917276168   0.006037787
C        0.329926584   0.916485477   0.011932565
C        0.579275778   0.917575716  -0.007873435
C        0.834825512   0.920277283  -0.017577944
O        0.694127371   0.482847960   0.112816927
O        0.382034160   0.461424896   0.137270877
H        0.522472512   0.473327686   0.026226210
K_POINTS automatic 
  16 16 1   0 0 0 

