 &CONTROL
                 calculation = 'relax' ,
                      outdir = './tmp/' ,
                  pseudo_dir = '/home/deleted/pseudo_psl' ,
                      prefix = 'GF_op' ,
                   verbosity = 'high' ,
               etot_conv_thr = 1.0D-5 ,
               forc_conv_thr = 4.0D-4 ,
                       nstep = 1000 ,
                    dipfield = .true. ,
 /
 &SYSTEM
                       ibrav = 4,
                           A = 9.88 ,
                           C = 15 ,
                         nat = 35,
                        ntyp = 4,
                     ecutwfc = 40.424239707 ,
                     ecutrho = 404.24239707 ,
                 occupations = 'smearing' ,
                     degauss = 0.01 ,
				   input_dft = 'vdW-DF' ,
    nspin = 2 ,
    starting_magnetization(1) = 0.5,
    starting_magnetization(2) = 0.5,
    starting_magnetization(3) = 0.5,
	starting_magnetization(4) = 0.5,
 /
 &ELECTRONS
            electron_maxstep = 50001,
                    conv_thr = 1.0D-6 ,
                 mixing_mode = 'local-TF' ,
                 mixing_beta = 0.5 ,
 /
 &IONS
                ion_dynamics = 'bfgs' ,
 /
ATOMIC_SPECIES
    C   12.01100  C.revpbe-n-kjpaw_psl.0.1.UPF 
    F   18.99800  F.revpbe-n-kjpaw_psl.0.1.UPF 
    O   15.99940  O.revpbe-n-kjpaw_psl.0.1.UPF 
    H   1.008000  H.revpbe-kjpaw_psl.0.1.UPF
ATOMIC_POSITIONS crystal 
C       -0.007573028  -0.002457081   0.004614014
C        0.241338269  -0.004794447   0.010505275
C        0.492071049  -0.002396459   0.010732606
C        0.741003147  -0.001567782   0.001818008
C       -0.007382509   0.248019637   0.004892000
C        0.074232918   0.163806996   0.009662280
C        0.240549706   0.244750476   0.012000520
C        0.323592371   0.160779001   0.009752935
C        0.489634828   0.244325170   0.004697614
C        0.574867593   0.163456320   0.003137204
C        0.740921219   0.248027926   0.001732997
C        0.825040774   0.164875120   0.001664802
C       -0.008765321   0.497178017   0.003985006
C        0.076961026   0.414493936   0.008644437
C        0.246064964   0.498200558   0.018616281
C        0.324323725   0.408305027   0.014688044
C        0.569971217   0.408539573   0.000945592
C        0.736245928   0.497047720  -0.008318039
C        0.822450909   0.414611143  -0.001440431
C       -0.009466213   0.747213463   0.001237000
C        0.074004226   0.663189117   0.007147438
C        0.241092150   0.745630816   0.015784106
C        0.324517846   0.664200891   0.026981153
C        0.490020649   0.758503602   0.055480687
F        0.627828872   0.702902501  -0.086590633
C        0.760051267   0.760660949  -0.035375130
C        0.824664659   0.665971743  -0.015276786
C        0.074122668   0.912918299   0.005793451
C        0.324672684   0.913343014   0.014171974
C        0.576993325   0.917781818   0.017000652
C        0.828032227   0.917331593  -0.008991153
O        0.549226227   0.714434719   0.113420124
O        0.485357290   0.484049958   0.010219305
H        0.58852755    0.70866861    0.213420124
H        0.556593081   0.59347623    0.110219305
K_POINTS automatic 
  4 4 1   0 0 0 

