 &CONTROL
                 calculation = 'relax' ,
                      outdir = './tmp/' ,
                  pseudo_dir = '/home/deleted/pseudo_psl' ,
                      prefix = 'GCl_op' ,
                   verbosity = 'high' ,
               etot_conv_thr = 1.0D-5 ,
               forc_conv_thr = 4.0D-4 ,
                       nstep = 1000 ,
                    dipfield = .true. ,
 /
 &SYSTEM
                       ibrav = 4,
                           A = 9.88 ,
                           C = 15 ,
                         nat = 32,
                        ntyp = 3,
                     ecutwfc = 40.424239707 ,
                     ecutrho = 404.24239707 ,
                 occupations = 'smearing' ,
                     degauss = 0.01 ,
				   input_dft = 'vdW-DF' ,
 /
 &ELECTRONS
            electron_maxstep = 50001,
                    conv_thr = 1.0D-6 ,
                 mixing_mode = 'local-TF' ,
                 mixing_beta = 0.5 ,
 /
 &IONS
                ion_dynamics = 'bfgs' ,
 /
ATOMIC_SPECIES
    C   12.01100  C.revpbe-n-kjpaw_psl.0.1.UPF 
   Cl   35.45200  Cl.revpbe-n-kjpaw_psl.0.3.0.UPF 
    O   15.99940  O.revpbe-n-kjpaw_psl.0.1.UPF 
ATOMIC_POSITIONS crystal 
C        0.010455780   0.001984094  -0.005344021
C        0.256622064  -0.008450419  -0.005418646
C        0.513145364   0.002124553  -0.005745078
C        0.769209107   0.017105978  -0.006232639
C        0.019303813   0.258632223  -0.005515859
C        0.096758064   0.169200109  -0.005222816
C        0.263668734   0.245959643  -0.005174195
C        0.337725104   0.154070070  -0.005266638
C        0.503653033   0.246048085  -0.005060693
C        0.593957870   0.169329074  -0.005030045
C        0.760807005   0.258699125  -0.005131475
C        0.850521595   0.179593481  -0.005539988
C        0.012891138   0.503931213  -0.006015702
C        0.107870104   0.423406587  -0.005871640
C        0.285492329   0.501234361  -0.006283939
C        0.363635107   0.408281855  -0.005446709
C        0.565787842   0.408325152  -0.005271814
C        0.737160895   0.501296090  -0.005640149
C        0.837258955   0.423493789  -0.005497282
C       -0.000620637   0.747759211  -0.005879966
C        0.094692698   0.667397672  -0.006381187
C        0.269935335   0.747800550  -0.006738516
C        0.369825843   0.669991805  -0.007256854
C        0.540753641   0.762964540  -0.007036472
Cl       0.467037222   0.667602608   0.215139591
C        0.743538549   0.763138021  -0.006439274
C        0.821809657   0.670083715  -0.006011398
C        0.087823996   0.912520542  -0.005375534
C        0.346331543   0.912600632  -0.005942813
C        0.603358487   0.925357789  -0.006564494
C        0.843466171   0.925258188  -0.006147164
O        0.302403544   0.652553304   0.183665415
K_POINTS automatic 
  4 4 1   0 0 0 

