 &CONTROL
                 calculation = 'scf' ,
                      outdir = './tmp_subs/' ,
                  pseudo_dir = '/home/deleted/pseudo_psl' ,
                      prefix = 'GF_op-subs' ,
                   verbosity = 'high' ,
               etot_conv_thr = 1.0D-5 ,
               forc_conv_thr = 4.0D-4 ,
                       nstep = 1000 ,
                    dipfield = .true. ,
 /
 &SYSTEM
                       ibrav = 4,
                           A = 9.88 ,
                           C = 15 ,
                         nat = 31,
                        ntyp = 2,
                     ecutwfc = 40.424239707 ,
                     ecutrho = 404.24239707 ,
                 occupations = 'smearing' ,
                     degauss = 0.01 ,
				   input_dft = 'vdW-DF' ,
    nspin = 2 ,
    starting_magnetization(1) = 0.5,
    starting_magnetization(2) = 0.5,
 /
 &ELECTRONS
            electron_maxstep = 50001,
                    conv_thr = 1.0D-6 ,
                 mixing_mode = 'local-TF' ,
                 mixing_beta = 0.5 ,
 /
ATOMIC_SPECIES
    C   12.01100  C.revpbe-n-kjpaw_psl.0.1.UPF 
    F   18.99800  F.revpbe-n-kjpaw_psl.0.1.UPF 
ATOMIC_POSITIONS (crystal)
C       -0.001736527   0.001505712  -0.000307649
C        0.245184674  -0.003814191   0.007490068
C        0.497047389   0.002123899   0.011282621
C        0.746582367   0.003494275   0.000372099
C       -0.000537409   0.252560855  -0.000507054
C        0.081745194   0.168527353   0.003105137
C        0.249682347   0.249868385   0.004848442
C        0.326735598   0.160206878   0.005956237
C        0.492321581   0.249168241   0.003785752
C        0.578939538   0.168465905   0.003887801
C        0.745113788   0.252655155   0.001387797
C        0.830700054   0.169957220  -0.000675556
C       -0.003805926   0.500344617   0.000894016
C        0.085579081   0.418508444   0.002229751
C        0.260616494   0.501628930   0.009945666
C        0.342264549   0.411982195   0.005692602
C        0.562155314   0.411997820  -0.000297863
C        0.731782260   0.499967939  -0.006742658
C        0.824278674   0.418554967  -0.001559260
C       -0.005723660   0.749092016  -0.000764356
C        0.079130245   0.665950182   0.004174424
C        0.246554147   0.747321746   0.012491626
C        0.331653883   0.666705589   0.021248039
C        0.496259916   0.759240737   0.050005532
F        0.619919753   0.693028567  -0.074710351
C        0.761968632   0.762337806  -0.032749158
C        0.827341071   0.668643162  -0.014224414
C        0.077943134   0.914680868   0.002088497
C        0.329472113   0.915113735   0.012797944
C        0.583008931   0.923045398   0.016820250
C        0.832763674   0.921447437  -0.011415887
K_POINTS automatic 
  16 16 1   0 0 0 

