 &CONTROL
                 calculation = 'nscf' ,
                      outdir = './tmp/' ,
                  pseudo_dir = '/home/deleted/pseudo_psl' ,
                      prefix = 'GF_op' ,
                   verbosity = 'high' ,
               etot_conv_thr = 1.0D-5 ,
               forc_conv_thr = 4.0D-4 ,
                       nstep = 1000 ,
                    dipfield = .true. ,
 /
 &SYSTEM
                       ibrav = 4,
                           A = 9.88 ,
                           C = 15 ,
                         nat = 34,
                        ntyp = 4,
                     ecutwfc = 40.424239707 ,
                     ecutrho = 404.24239707 ,
                 occupations = 'tetrahedra' ,
                     degauss = 0.01 ,
				   input_dft = 'vdW-DF' ,
    nspin = 2 ,
    starting_magnetization(1) = 0.5,
    starting_magnetization(2) = 0.5,
    starting_magnetization(3) = 0.5,
 /
 &ELECTRONS
            electron_maxstep = 50001,
                    conv_thr = 1.0D-6 ,
                 mixing_mode = 'local-TF' ,
                 mixing_beta = 0.5 ,
    diagonalization = 'cg' ,
 /
ATOMIC_SPECIES
    C   12.01100  C.revpbe-n-kjpaw_psl.0.1.UPF 
    F   18.99800  F.revpbe-n-kjpaw_psl.0.1.UPF 
    O   15.99940  O.revpbe-n-kjpaw_psl.0.1.UPF 
    H   1.008000  H.revpbe-kjpaw_psl.0.1.UPF
ATOMIC_POSITIONS (crystal)
C       -0.004536251  -0.014825573   0.026569541
C        0.236903609  -0.022767561   0.009630934
C        0.489324791  -0.016797095   0.002817137
C        0.741365747  -0.014527982   0.013065691
C       -0.006188582   0.233964922   0.012302411
C        0.076274200   0.149198678   0.015130512
C        0.242955482   0.229520257   0.009099472
C        0.318741023   0.140190609   0.008418104
C        0.485763194   0.230950372   0.006829260
C        0.572432689   0.149510972   0.005420854
C        0.738434658   0.233054389   0.003735929
C        0.823654630   0.149522194   0.008902072
C       -0.010828848   0.481202202   0.006413663
C        0.079626412   0.397790064   0.005602240
C        0.255043324   0.479898414  -0.000153946
C        0.336617774   0.392586147   0.004755833
C        0.553886167   0.392092058   0.008890947
C        0.725638251   0.481486754   0.013717813
C        0.817974492   0.399135567   0.006329506
C       -0.015434793   0.727200524   0.019193924
C        0.071328732   0.646254517   0.009288698
C        0.240820311   0.729761505   0.004090251
C        0.328302892   0.649066496  -0.006775322
C        0.488569871   0.742462353  -0.021242394
F        0.567772690   0.676837327  -0.059932249
C        0.746868746   0.731940777   0.067496907
C        0.818982230   0.646162143   0.027765639
C        0.070414997   0.897131225   0.019792634
C        0.322314648   0.895074214   0.004438590
C        0.576703696   0.903297706  -0.002199376
C        0.829774961   0.912436856   0.059086500
O        0.845891657   0.965182553   0.153272930
O        0.632054691   0.667559947   0.117283296
H        0.747643268   0.889145194   0.181850377
K_POINTS automatic 
  20 20 1   0 0 0 

