 &CONTROL
                 calculation = 'scf' ,
                      outdir = './tmp_subs/' ,
                  pseudo_dir = '/home/deleted/pseudo_psl' ,
                      prefix = 'GI_op_subs' ,
                   verbosity = 'high' ,
               etot_conv_thr = 1.0D-5 ,
               forc_conv_thr = 4.0D-4 ,
                       nstep = 1000 ,
                    dipfield = .true. ,
 /
 &SYSTEM
                       ibrav = 4,
                           A = 9.88 ,
                           C = 15 ,
                         nat = 31,
                        ntyp = 2,
                     ecutwfc = 40.424239707 ,
                     ecutrho = 404.24239707 ,
                 occupations = 'smearing' ,
                     degauss = 0.01 ,
				   input_dft = 'vdW-DF' ,
 /
 &ELECTRONS
            electron_maxstep = 50001,
                    conv_thr = 1.0D-6 ,
                 mixing_mode = 'local-TF' ,
                 mixing_beta = 0.5 ,
 /
ATOMIC_SPECIES
    C   12.01100  C.revpbe-n-kjpaw_psl.0.1.UPF 
    I  126.90400  I.revpbe-n-kjpaw_psl.0.2.UPF 
ATOMIC_POSITIONS crystal 
C       -0.002292961  -0.000698671   0.003242912
C        0.247002066  -0.005995870   0.003027222
C        0.501594290  -0.000698671   0.003242912
C        0.755732360   0.011464718   0.002844555
C        0.004176854   0.254710490   0.002429913
C        0.081654673   0.165676732   0.002945994
C        0.247275052   0.243372591   0.001810707
C        0.329294830   0.158589661   0.002327656
C        0.496097540   0.243372591   0.001810707
C        0.584022058   0.165676732   0.002945994
C        0.750533636   0.254710490   0.002429913
C        0.837276719   0.174553440   0.002772806
C        0.001080278   0.502160557   0.001168009
C        0.089556824   0.420702320   0.001309630
C        0.259294886   0.500328441   0.000021384
C        0.331402185   0.406701972  -0.000626601
C        0.575299788   0.406701972  -0.000626601
C        0.741033556   0.500328441   0.000021384
C        0.831145494   0.420702320   0.001309630
C       -0.008868600   0.748215948   0.001486995
C        0.083476882   0.666953765   0.001097959
C        0.257084549   0.748215948   0.001486995
C        0.352366198   0.668242177   0.000644354
C        0.525203616   0.759065395   0.002379882
I        0.587190954   0.674381907   0.215564745
C        0.733861778   0.759065395   0.002379882
C        0.815875977   0.668242177   0.000644354
C        0.078649534   0.913575981   0.002845153
C        0.334926446   0.913575981   0.002845153
C        0.590120374   0.921234533   0.002875263
C        0.831114159   0.921234533   0.002875263
K_POINTS automatic 
  16 16 1   0 0 0 

