 &CONTROL
                 calculation = 'relax' ,
                      outdir = './tmp/' ,
                  pseudo_dir = '/home/deleted/pseudo_psl' ,
                      prefix = 'GCl_ip' ,
                   verbosity = 'high' ,
               etot_conv_thr = 1.0D-5 ,
               forc_conv_thr = 4.0D-4 ,
                       nstep = 1000 ,
                    dipfield = .true. ,
 /
 &SYSTEM
                       ibrav = 4,
                           A = 9.88 ,
                           C = 15 ,
                         nat = 32,
                        ntyp = 3,
                     ecutwfc = 40.424239707 ,
                     ecutrho = 404.24239707 ,
                 occupations = 'smearing' ,
                     degauss = 0.01 ,
				   input_dft = 'vdW-DF' ,
    nspin = 2 ,
    starting_magnetization(1) = 0.5,
    starting_magnetization(2) = 0.5,
    starting_magnetization(3) = 1.0,
 /
 &ELECTRONS
            electron_maxstep = 50001,
                    conv_thr = 1.0D-6 ,
                 mixing_mode = 'local-TF' ,
                 mixing_beta = 0.5 ,
 /
 &IONS
                ion_dynamics = 'bfgs' ,
 /
ATOMIC_SPECIES
    C   12.01100  C.revpbe-n-kjpaw_psl.0.1.UPF 
   Cl   35.45200  Cl.revpbe-n-kjpaw_psl.0.3.0.UPF 
    O   15.99940  O.revpbe-n-kjpaw_psl.0.1.UPF 
ATOMIC_POSITIONS crystal 
C        0.002205196   0.009675493  -0.003583042
C        0.249500930   0.005275951  -0.000090022
C        0.500485687   0.005923020   0.006996738
C        0.755252205   0.012398637   0.007774076
C        0.004053293   0.261835696   0.002770538
C        0.084940087   0.175472707   0.000400053
C        0.250056134   0.253701081   0.000424558
C        0.333172879   0.169709127  -0.005237895
C        0.498690010   0.250135888  -0.009553147
C        0.584522726   0.170644778  -0.000870817
C        0.750762702   0.256765623  -0.002152267
C        0.837733405   0.176883135   0.002067574
C       -0.004717673   0.509212717   0.009713020
C        0.082445742   0.428225500   0.011891531
C        0.250764898   0.509756760   0.014912505
C        0.319231835   0.416751359  -0.001190549
C        0.584233243   0.412143039  -0.020224421
C        0.743508557   0.506563173  -0.003319831
C        0.828619402   0.423360699   0.001200170
C       -0.004217989   0.758758200   0.001180780
C        0.079193095   0.675597660   0.008085229
C        0.248489257   0.757621109   0.015331121
C        0.338095831   0.677578501   0.022363328
C        0.506553468   0.766518823   0.027769838
Cl       0.482657373   0.492187413  -0.079648386
C        0.752811709   0.765996130   0.015201616
C        0.825561013   0.675274301   0.002933802
C        0.082528635   0.924684235  -0.000846217
C        0.332966820   0.922710414   0.008925099
C        0.587478510   0.928040792   0.012430008
C        0.836654970   0.928128429   0.003118096
O        0.601585080   0.698469564   0.051226911
K_POINTS automatic 
  4 4 1   0 0 0 

