 &CONTROL
                 calculation = 'scf' ,
                      outdir = './tmp/' ,
                  pseudo_dir = '/home/deleted/pseudo_psl' ,
                      prefix = 'GI_ip' ,
                   verbosity = 'high' ,
               etot_conv_thr = 1.0D-5 ,
               forc_conv_thr = 4.0D-4 ,
                       nstep = 1000 ,
                    dipfield = .true. ,
 /
 &SYSTEM
                       ibrav = 4,
                           A = 9.88 ,
                           C = 15 ,
                         nat = 32,
                        ntyp = 3,
                     ecutwfc = 40.424239707 ,
                     ecutrho = 404.24239707 ,
                 occupations = 'smearing' ,
                     degauss = 0.01 ,
				   input_dft = 'vdW-DF' ,
 /
 &ELECTRONS
            electron_maxstep = 50001,
                    conv_thr = 1.0D-6 ,
                 mixing_mode = 'local-TF' ,
                 mixing_beta = 0.5 ,
 /
ATOMIC_SPECIES
    C   12.01100  C.revpbe-n-kjpaw_psl.0.1.UPF 
    I  126.90400  I.revpbe-n-kjpaw_psl.0.2.UPF 
    O   15.99940  O.revpbe-n-kjpaw_psl.0.1.UPF 
ATOMIC_POSITIONS crystal 
C       -0.001958995   0.002191512  -0.002413985
C        0.252438116   0.008504266   0.000153461
C        0.499879385   0.006314699   0.009857216
C        0.745437906  -0.000921190   0.004623435
C       -0.003880913   0.251106086   0.007725812
C        0.079549009   0.168709195   0.003403640
C        0.245970299   0.254215042  -0.007647259
C        0.333960466   0.174600806  -0.011667769
C        0.501784601   0.258294355  -0.015492256
C        0.583296421   0.172648816  -0.001855293
C        0.748958912   0.252819750   0.003457164
C        0.829633293   0.166221923   0.005464784
C       -0.000898968   0.504128424   0.013567549
C        0.077542670   0.417722942   0.016508761
C        0.243650957   0.503184365   0.015812249
C        0.312209090   0.416970009  -0.013094444
C        0.597583607   0.422111773  -0.025959833
C        0.757260902   0.503871189  -0.015107065
C        0.835044005   0.419613750   0.002778689
C        0.004965547   0.756724894   0.000874064
C        0.084213043   0.671486077   0.010974228
C        0.249578522   0.756217035   0.016892491
C        0.328588666   0.671032999   0.027321711
C        0.493108616   0.760810484   0.056648373
I        0.524746444   0.578661658  -0.082622016
C        0.766605551   0.756602295  -0.032920334
C        0.842403171   0.673754552  -0.016509472
C        0.085004422   0.922761058  -0.000849910
C        0.333058004   0.924092445   0.011021995
C        0.581499693   0.922865465   0.020440445
C        0.830745081   0.916267100  -0.010592805
O        0.553241456   0.708230867   0.109206374
K_POINTS automatic 
  16 16 1   0 0 0 

