 &CONTROL
                 calculation = 'relax' ,
                      outdir = './tmp/' ,
                  pseudo_dir = '/home/deleted/pseudo_psl' ,
                      prefix = 'GF_op' ,
                   verbosity = 'high' ,
               etot_conv_thr = 1.0D-5 ,
               forc_conv_thr = 4.0D-4 ,
                       nstep = 1000 ,
                    dipfield = .true. ,
 /
 &SYSTEM
                       ibrav = 4,
                           A = 9.88 ,
                           C = 15 ,
                         nat = 34,
                        ntyp = 4,
                     ecutwfc = 40.424239707 ,
                     ecutrho = 404.24239707 ,
                 occupations = 'smearing' ,
                     degauss = 0.01 ,
				   input_dft = 'vdW-DF' ,
 /
 &ELECTRONS
            electron_maxstep = 50001,
                    conv_thr = 1.0D-6 ,
                 mixing_mode = 'local-TF' ,
                 mixing_beta = 0.5 ,
 /
 &IONS
                ion_dynamics = 'bfgs' ,
 /
ATOMIC_SPECIES
    C   12.01100  C.revpbe-n-kjpaw_psl.0.1.UPF 
    F   18.99800  F.revpbe-n-kjpaw_psl.0.1.UPF 
    O   15.99940  O.revpbe-n-kjpaw_psl.0.1.UPF 
	H   1.00800   H.revpbe-kjpaw_psl.0.1.UPF
ATOMIC_POSITIONS crystal 
C        0.006856631   0.009705629  -0.002303441
C        0.250974850   0.001949700   0.000006699
C        0.502848998   0.009705629  -0.002303441
C        0.757551254   0.015102510  -0.006606655
C        0.007839907   0.260309350  -0.002988712
C        0.089767319   0.175864538  -0.001635597
C        0.256596310   0.254557482  -0.000513558
C        0.332394014   0.164788030   0.000343646
C        0.497961173   0.254557482  -0.000513558
C        0.586097218   0.175864538  -0.001635597
C        0.752469442   0.260309350  -0.002988712
C        0.839541723   0.179083446  -0.004211462
C        0.003504951   0.507009900  -0.002976374
C        0.094081120   0.425528788  -0.003059377
C        0.268300957   0.504993054  -0.003411086
C        0.350260220   0.416489845  -0.001958316
C        0.566229624   0.416489845  -0.001958316
C        0.736692097   0.504993054  -0.003411086
C        0.831447667   0.425528788  -0.003059377
C        0.000726920   0.754720297  -0.002125879
C        0.086011178   0.672022357  -0.001989562
C        0.253993378   0.754720297  -0.002125879
C        0.341897153   0.672936589  -0.004558646
C        0.500908978   0.772199473  -0.006946741
F        0.594425483   0.688850968  -0.022121491
C        0.771290494   0.772199473  -0.006946741
C        0.831039436   0.672936589  -0.004558646
C        0.084323357   0.920762292  -0.001089675
C        0.336438935   0.920762292  -0.001089675
C        0.591089445   0.931932848  -0.006210539
C        0.840843403   0.931932848  -0.006210539
O        0.666351420   0.702263027   0.172245834
O        0.535911608   0.702263027   0.172245834
H        0.601131514   0.602500255   0.179129831
K_POINTS automatic 
  4 4 1   0 0 0 

