 &CONTROL
                 calculation = 'bands' ,
                      outdir = './tmp/' ,
                  pseudo_dir = '/home/deleted/pseudo_psl' ,
                      prefix = 'GCl_ip' ,
                   verbosity = 'high' ,
               etot_conv_thr = 1.0D-5 ,
               forc_conv_thr = 4.0D-4 ,
                       nstep = 1000 ,
                    dipfield = .true. ,
 /
 &SYSTEM
                       ibrav = 4,
                           A = 9.88 ,
                           C = 15 ,
                         nat = 34,
                        ntyp = 4,
                     ecutwfc = 40.424239707 ,
                     ecutrho = 404.24239707 ,
                 occupations = 'tetrahedra' ,
                     degauss = 0.01 ,
				   input_dft = 'vdW-DF' ,
 /
 &ELECTRONS
            electron_maxstep = 50001,
                    conv_thr = 1.0D-6 ,
                 mixing_mode = 'local-TF' ,
                 mixing_beta = 0.5 ,
 /
ATOMIC_SPECIES
    C   12.01100  C.revpbe-n-kjpaw_psl.0.1.UPF 
   Cl   35.45200  Cl.revpbe-n-kjpaw_psl.0.3.0.UPF 
    O   15.99940  O.revpbe-n-kjpaw_psl.0.1.UPF 
    H   1.008000  H.revpbe-kjpaw_psl.0.1.UPF
ATOMIC_POSITIONS crystal 
C        0.005656743   0.002529865  -0.006068847
C        0.251715246  -0.003266718  -0.013042659
C        0.503331090   0.002332844  -0.005151592
C        0.756934086   0.007201548   0.011488058
C        0.007228343   0.253235730  -0.004440758
C        0.089071757   0.168911573  -0.008536192
C        0.256412017   0.249250552  -0.012406394
C        0.333189120   0.159739864  -0.014434871
C        0.499408467   0.249028128  -0.012588085
C        0.586486398   0.168711224  -0.008511704
C        0.752652406   0.253214671  -0.004062428
C        0.838717507   0.170872581   0.000865858
C        0.003958138   0.501062854  -0.005496903
C        0.093401751   0.418751456  -0.004917878
C        0.266751257   0.499792023  -0.002678279
C        0.347535026   0.411192166  -0.008581533
C        0.570138947   0.411086851  -0.009182890
C        0.739667577   0.499792479  -0.003944395
C        0.832140539   0.418675653  -0.004928839
C        0.001017848   0.748816715  -0.008312256
C        0.086371158   0.665804583  -0.009817424
C        0.254738666   0.748884007  -0.008013078
C        0.341278175   0.668076034   0.004119271
C        0.498956505   0.762446525   0.025810557
Cl       0.590221832   0.682312796   0.093073111
C        0.764973977   0.760748541   0.016971737
C        0.832960528   0.668464048   0.001393272
C        0.084554675   0.914869804  -0.010026715
C        0.336967895   0.914887872  -0.009416378
C        0.588602208   0.923594982   0.012106338
C        0.841022411   0.923035735   0.008649567
O        0.369375193   0.735055053   0.209699332
O        0.401945116   0.607683268   0.194035110
H        0.408647624   0.765815463   0.270464869
K_POINTS crystal_b 
4
0.0000000000    0.0000000000    0.0000000000 17
0.0000000000    0.5000000000    0.0000000000 10
0.3333333333    0.3333333333    0.0000000000 20
0.0000000000    0.0000000000    0.0000000000 1

