 &CONTROL
                 calculation = 'scf' ,
                      outdir = './tmp_subs/' ,
                  pseudo_dir = '/home/deleted/pseudo_psl' ,
                      prefix = 'GBr_op_subs' ,
                   verbosity = 'high' ,
               etot_conv_thr = 1.0D-5 ,
               forc_conv_thr = 4.0D-4 ,
                       nstep = 1000 ,
                    dipfield = .true. ,
 /
 &SYSTEM
                       ibrav = 4,
                           A = 9.88 ,
                           C = 15 ,
                         nat = 31,
                        ntyp = 2,
                     ecutwfc = 40.424239707 ,
                     ecutrho = 404.24239707 ,
                 occupations = 'smearing' ,
                     degauss = 0.01 ,
				   input_dft = 'vdW-DF' ,
 /
 &ELECTRONS
            electron_maxstep = 50001,
                    conv_thr = 1.0D-6 ,
                 mixing_mode = 'local-TF' ,
                 mixing_beta = 0.5 ,
 /
ATOMIC_SPECIES
    C   12.01100  C.revpbe-n-kjpaw_psl.0.1.UPF 
   Br   79.90350  Br.revpbe-n-kjpaw_psl.0.2.UPF 
ATOMIC_POSITIONS crystal 
C       -0.005049208  -0.001373532  -0.010371741
C        0.239802559  -0.009515623  -0.006564408
C        0.495126503  -0.000628030  -0.002923656
C        0.747574344   0.006304737  -0.009402077
C       -0.002366871   0.250762348  -0.011448423
C        0.078614840   0.164652759  -0.011367717
C        0.244521960   0.242392843  -0.010399070
C        0.321444121   0.153663989  -0.008436112
C        0.487616569   0.244155734  -0.007099280
C        0.576162222   0.165346001  -0.007237913
C        0.742585186   0.251105520  -0.008949633
C        0.829969054   0.171183291  -0.011372090
C       -0.007513786   0.497534080  -0.005852387
C        0.084433319   0.415374474  -0.007786427
C        0.257631635   0.492422121  -0.003495524
C        0.338647399   0.405006301  -0.007346095
C        0.554440928   0.405755049  -0.006211410
C        0.726059320   0.497435231  -0.007082958
C        0.821464777   0.417113669  -0.007528024
C       -0.012420844   0.744724686  -0.007219160
C        0.075064007   0.663394009  -0.003763099
C        0.242316833   0.745340943   0.001812154
C        0.332431494   0.661685100   0.014307715
C        0.506302241   0.757919103   0.016163330
Br       0.820130532   0.864784124   0.212498603
C        0.746506821   0.758199196  -0.008561229
C        0.818766850   0.665091121  -0.008361897
C        0.073211817   0.910382323  -0.008256897
C        0.325489716   0.909096000  -0.001377177
C        0.584495540   0.925290271  -0.001528660
C        0.830349060   0.921244915  -0.009284873
K_POINTS automatic 
  16 16 1   0 0 0 

