 &CONTROL
                 calculation = 'scf' ,
                      outdir = './tmp/' ,
                  pseudo_dir = '/home/deleted/pseudo_psl' ,
                      prefix = 'GBr_op' ,
                   verbosity = 'high' ,
               etot_conv_thr = 1.0D-5 ,
               forc_conv_thr = 4.0D-4 ,
                       nstep = 1000 ,
                    dipfield = .true. ,
 /
 &SYSTEM
                       ibrav = 4,
                           A = 9.88 ,
                           C = 15 ,
                         nat = 34,
                        ntyp = 4,
                     ecutwfc = 40.424239707 ,
                     ecutrho = 404.24239707 ,
                 occupations = 'smearing' ,
                     degauss = 0.01 ,
				   input_dft = 'vdW-DF' ,
 /
 &ELECTRONS
            electron_maxstep = 50001,
                    conv_thr = 1.0D-6 ,
                 mixing_mode = 'local-TF' ,
                 mixing_beta = 0.5 ,
 /
ATOMIC_SPECIES
    C   12.01100  C.revpbe-n-kjpaw_psl.0.1.UPF 
   Br   79.90350  Br.revpbe-n-kjpaw_psl.0.2.UPF 
    O   15.99940  O.revpbe-n-kjpaw_psl.0.1.UPF 
    H   1.008000  H.revpbe-kjpaw_psl.0.1.UPF
ATOMIC_POSITIONS crystal 
C       -0.001372736  -0.005103763  -0.000722775
C        0.245238735  -0.013745702   0.006712407
C        0.497236346  -0.007202618  -0.014986610
C        0.754217007   0.005905170  -0.027129466
C       -0.004861496   0.243461687   0.007856891
C        0.079205601   0.160345446   0.007536909
C        0.245867099   0.239303298   0.013454215
C        0.324510174   0.150079574   0.008048972
C        0.489772431   0.239685948   0.006735770
C        0.576404949   0.159613195  -0.004763988
C        0.742342712   0.246157385  -0.001225602
C        0.830491466   0.166049751  -0.004263137
C       -0.010800921   0.491055250   0.016328082
C        0.075177167   0.405712740   0.019807754
C        0.244028114   0.482747021   0.031098090
C        0.333401701   0.399873161   0.022677628
C        0.559869838   0.402725479   0.010802700
C        0.727761936   0.493848716   0.003996353
C        0.819148304   0.410919797   0.007507719
C       -0.010392935   0.740678091   0.005633592
C        0.073158164   0.656335866   0.016747167
C        0.242191631   0.736271305   0.021124729
C        0.314239158   0.645445042   0.039144319
C        0.522255929   0.756620116  -0.049464495
Br       0.779076079   1.077209023   0.200956330
C        0.758944907   0.757404083  -0.032212475
C        0.822423493   0.662498155  -0.006664140
C        0.076843022   0.906394294   0.005306414
C        0.331014118   0.903568092   0.003753168
C        0.593809651   0.927689120  -0.039595427
C        0.837601589   0.919309427  -0.021531178
O        0.614569595   0.689945039  -0.072173262
O        0.472454606   0.713198094   0.043590760
H        0.422827193   0.701799373  -0.095155377
K_POINTS automatic 
  16 16 1   0 0 0 

