 &CONTROL
                 calculation = 'bands' ,
                      outdir = './tmp/' ,
                  pseudo_dir = '/home/deleted/pseudo_psl' ,
                      prefix = 'GBr_op' ,
                   verbosity = 'high' ,
               etot_conv_thr = 1.0D-5 ,
               forc_conv_thr = 4.0D-4 ,
                       nstep = 1000 ,
                    dipfield = .true. ,
 /
 &SYSTEM
                       ibrav = 4,
                           A = 9.88 ,
                           C = 15 ,
                         nat = 34,
                        ntyp = 4,
                     ecutwfc = 40.424239707 ,
                     ecutrho = 404.24239707 ,
                 occupations = 'tetrahedra' ,
                     degauss = 0.01 ,
				   input_dft = 'vdW-DF' ,
    nspin = 2 ,
    starting_magnetization(1) = 0.5,
    starting_magnetization(2) = 0.5,
    starting_magnetization(3) = 0.5,
 /
 &ELECTRONS
            electron_maxstep = 50001,
                    conv_thr = 1.0D-6 ,
                 mixing_mode = 'local-TF' ,
                 mixing_beta = 0.5 ,
 /
ATOMIC_SPECIES
    C   12.01100  C.revpbe-n-kjpaw_psl.0.1.UPF 
   Br   79.90350  Br.revpbe-n-kjpaw_psl.0.2.UPF 
    O   15.99940  O.revpbe-n-kjpaw_psl.0.1.UPF 
    H   1.008000  H.revpbe-kjpaw_psl.0.1.UPF
ATOMIC_POSITIONS (crystal)
C        0.008453251   0.008498333  -0.000835682
C        0.254274203  -0.001653045  -0.003587705
C        0.510796315   0.008813049  -0.006514836
C        0.767458515   0.021644492  -0.003666764
C        0.017062637   0.264305628  -0.006474725
C        0.095159485   0.175699929  -0.004770170
C        0.262211925   0.252834750  -0.005996522
C        0.336258678   0.161476200  -0.005244197
C        0.502536193   0.253682314  -0.007029594
C        0.592273364   0.176148134  -0.007341053
C        0.759430658   0.264206499  -0.008615517
C        0.848971245   0.185370562  -0.006841588
C        0.011034319   0.509643940  -0.007970215
C        0.105902884   0.429518701  -0.007743114
C        0.282755810   0.507627300  -0.007546176
C        0.362712170   0.415644165  -0.007488513
C        0.564675065   0.415810863  -0.007601248
C        0.737997638   0.508558065  -0.007666356
C        0.836655636   0.429124023  -0.008934422
C       -0.001763371   0.753300873  -0.003986440
C        0.092611001   0.673671817  -0.006253597
C        0.266780421   0.754427028  -0.005413882
C        0.364722626   0.676278401  -0.006227446
C        0.533596204   0.769514108  -0.006687804
Br       0.685532926   0.725642913   0.160880232
C        0.741672138   0.766412667   0.014917471
C        0.824783981   0.674513383  -0.002932721
C        0.086889621   0.919434093  -0.001409849
C        0.344050373   0.919295621  -0.005031561
C        0.600351266   0.931302451  -0.006206520
C        0.842615931   0.933088372   0.003019985
O        0.180336271   0.459658486   0.209424520
O        0.227949776   0.365762684   0.215999779
H        0.240198402   0.478540748   0.411708292
K_POINTS automatic 
  20 20 1   0 0 0 

