 &CONTROL
                 calculation = 'bands' ,
                      outdir = './tmp/' ,
                  pseudo_dir = '/home/deleted/pseudo_psl' ,
                      prefix = 'GCl_ip' ,
                   verbosity = 'high' ,
               etot_conv_thr = 1.0D-5 ,
               forc_conv_thr = 4.0D-4 ,
                       nstep = 1000 ,
                    dipfield = .true. ,
 /
 &SYSTEM
                       ibrav = 4,
                           A = 9.88 ,
                           C = 15 ,
                         nat = 34,
                        ntyp = 4,
                     ecutwfc = 40.424239707 ,
                     ecutrho = 404.24239707 ,
                 occupations = 'tetrahedra' ,
                     degauss = 0.01 ,
				   input_dft = 'vdW-DF' ,
 /
 &ELECTRONS
            electron_maxstep = 50001,
                    conv_thr = 1.0D-6 ,
                 mixing_mode = 'local-TF' ,
                 mixing_beta = 0.5 ,
 /
ATOMIC_SPECIES
    C   12.01100  C.revpbe-n-kjpaw_psl.0.1.UPF 
   Cl   35.45200  Cl.revpbe-n-kjpaw_psl.0.3.0.UPF 
    O   15.99940  O.revpbe-n-kjpaw_psl.0.1.UPF 
    H   1.008000  H.revpbe-kjpaw_psl.0.1.UPF
ATOMIC_POSITIONS crystal 
C        0.005898289   0.003071371  -0.003907771
C        0.259894269   0.010952359   0.005586205
C        0.507619491   0.010291669   0.007018874
C        0.755272278   0.002372761  -0.005329708
C        0.006213236   0.253154927   0.005351097
C        0.088209194   0.169487437   0.006551288
C        0.253221855   0.253546492   0.022155862
C        0.343366749   0.177817316   0.006909776
C        0.511551673   0.263347019  -0.008344155
C        0.592320505   0.176533432  -0.001545333
C        0.758941271   0.254526453  -0.004445959
C        0.839861146   0.168411017  -0.002018070
C        0.011208822   0.505700184   0.001823984
C        0.091035413   0.420630746   0.011324869
C        0.252519674   0.503343380   0.034417052
C        0.318893292   0.409066632   0.056670929
C        0.603426380   0.424246192  -0.032522847
C        0.764322016   0.501819618  -0.022107115
C        0.846294941   0.420377438  -0.007977537
C        0.012830552   0.757323874  -0.004796354
C        0.093075371   0.672911724   0.005748059
C        0.257260539   0.758609491   0.016883270
C        0.339221105   0.674978816   0.028132993
C        0.499920847   0.762824952   0.013521299
Cl       0.562950668   0.620239797  -0.028899359
C        0.768470351   0.752595006  -0.019727907
C        0.848844824   0.671302847  -0.018990059
C        0.092283881   0.923587406   0.000150721
C        0.341671572   0.925817951   0.009521926
C        0.588177393   0.924129616   0.003839351
C        0.837634490   0.917085804  -0.010999241
O        0.445285079   0.466429550   0.112977113
O        0.383041750   0.368233286   0.203209373
H        0.460395873   0.333896220   0.206460131
K_POINTS crystal_b 
4
0.0000000000    0.0000000000    0.0000000000 17
0.0000000000    0.5000000000    0.0000000000 10
0.3333333333    0.3333333333    0.0000000000 20
0.0000000000    0.0000000000    0.0000000000 1

