 &CONTROL
                 calculation = 'bands' ,
                      outdir = './tmp/' ,
                  pseudo_dir = '/home/deleted/pseudo_psl' ,
                      prefix = 'B1_ipD' ,
                    dipfield = .true. ,
                   verbosity = 'high',
                       nstep = 1000,
               forc_conv_thr = 4.0D-4,
               etot_conv_thr = 1.0D-5
 /
 &SYSTEM
                       ibrav = 4,
                           A = 9.88 ,
                           C = 15 ,
                         nat = 32, 
                        ntyp = 2,
                     ecutwfc = 40.424239707 ,
                     ecutrho = 404.24239707 ,
                 occupations = 'tetrahedra' ,
                     degauss = 0.01 ,
				   input_dft = 'vdW-DF' ,
    nspin = 2 ,
    starting_magnetization(1) = 0.5,
	starting_magnetization(2) = 0.5,
 /
 &ELECTRONS
            electron_maxstep = 50001,
                    conv_thr = 1.0D-6 ,
                 mixing_mode = 'local-TF' ,
                 mixing_beta = 0.5 ,
 /
ATOMIC_SPECIES
    C   12.01100  C.revpbe-n-kjpaw_psl.0.1.UPF
    O   15.99940  O.revpbe-n-kjpaw_psl.0.1.UPF 
ATOMIC_POSITIONS crystal 
C        0.001868992   0.001066910   0.000000000
C        0.247310893  -0.005723433   0.000000000
C        0.499516918   0.001054446   0.000000000
C        0.754350552   0.008369692   0.000000000
C        0.002605091   0.252408840   0.000000000
C        0.081467801   0.164921017   0.000000000
C        0.244666724   0.240437667   0.000000000
C        0.328985133   0.157606798   0.000000000
C        0.496141790   0.240461179   0.000000000
C        0.583803874   0.164927207   0.000000000
C        0.750167169   0.252419743   0.000000000
C        0.836020341   0.171707071   0.000000000
C        0.000345092   0.500353949   0.000000000
C        0.087589109   0.418111292   0.000000000
C        0.256868743   0.497857682   0.000000000
C        0.326638748   0.401529266   0.000000000
C        0.575253711   0.401536248   0.000000000
C        0.741355145   0.497894175   0.000000000
C        0.830862330   0.418122586   0.000000000
C       -0.004243465   0.747876959   0.000000000
C        0.082985561   0.665617562   0.000000000
C        0.252463171   0.747846742   0.000000000
C        0.341992647   0.668099926   0.000000000
C        0.508087618   0.764432582   0.000000000
O        0.600943444   0.701555997   0.000000000
O        0.482370382   0.464398010   0.000000000
C        0.756680717   0.764441980   0.000000000
C        0.826473472   0.668129276   0.000000000
C        0.080737700   0.913580615   0.000000000
C        0.333172550   0.913566593   0.000000000
C        0.587197942   0.925527735   0.000000000
C        0.838653434   0.925530360   0.000000000
K_POINTS crystal_b 
4
0.0000000000    0.0000000000    0.0000000000 17
0.0000000000    0.5000000000    0.0000000000 10
0.3333333333    0.3333333333    0.0000000000 20
0.0000000000    0.0000000000    0.0000000000 1

