 &BANDS
                      prefix = 'B1_ipD' ,
                      outdir = './tmp/' ,
                     filband = 'B1_ipD-bands' ,
                     plot_2d = .false. ,
 /
