 &CONTROL
                 calculation = 'scf' ,
                      outdir = './tmp_subs/' ,
                  pseudo_dir = '/home/deleted/pseudo_psl' ,
                      prefix = 'GBr_op_subs' ,
                   verbosity = 'high' ,
               etot_conv_thr = 1.0D-5 ,
               forc_conv_thr = 4.0D-4 ,
                       nstep = 1000 ,
                    dipfield = .true. ,
 /
 &SYSTEM
                       ibrav = 4,
                           A = 9.88 ,
                           C = 15 ,
                         nat = 31,
                        ntyp = 2,
                     ecutwfc = 40.424239707 ,
                     ecutrho = 404.24239707 ,
                 occupations = 'smearing' ,
                     degauss = 0.01 ,
				   input_dft = 'vdW-DF' ,
 /
 &ELECTRONS
            electron_maxstep = 50001,
                    conv_thr = 1.0D-6 ,
                 mixing_mode = 'local-TF' ,
                 mixing_beta = 0.5 ,
 /
ATOMIC_SPECIES
    C   12.01100  C.revpbe-n-kjpaw_psl.0.1.UPF 
   Br   79.90350  Br.revpbe-n-kjpaw_psl.0.2.UPF 
ATOMIC_POSITIONS crystal 
C        0.003655540   0.004952742  -0.005449071
C        0.248926665  -0.004077395  -0.005160689
C        0.502222748   0.005667700  -0.003256256
C        0.755300415   0.012018065  -0.004201883
C        0.006423165   0.257231821  -0.011447614
C        0.087657970   0.171522340  -0.009058964
C        0.254718115   0.250135805  -0.010566565
C        0.330129090   0.159142953  -0.008756805
C        0.495289253   0.249616988  -0.010287482
C        0.583830605   0.171690714  -0.009455871
C        0.750530935   0.257380423  -0.011014912
C        0.838358996   0.177161190  -0.010328945
C        0.001581387   0.503618214  -0.010149272
C        0.093286479   0.422620480  -0.011493790
C        0.269865552   0.503929203  -0.008335308
C        0.352244513   0.411394987  -0.011274026
C        0.559634638   0.412053620  -0.011154510
C        0.732375072   0.502729879  -0.010627278
C        0.827998240   0.422722376  -0.011264385
C       -0.003855844   0.750330771  -0.006712358
C        0.084336898   0.668409072  -0.006796338
C        0.253814927   0.748477879  -0.001395519
C        0.341163159   0.668213139   0.001797425
C        0.512558462   0.763004973   0.026895876
Br       0.451775667   0.596888792   0.199590031
C        0.753701285   0.763795969  -0.004893640
C        0.826380901   0.671078879  -0.008084900
C        0.081358304   0.915915024  -0.005319349
C        0.335079655   0.916169471  -0.001488678
C        0.591304514   0.930999492   0.002088153
C        0.838175161   0.927022671  -0.003025137
K_POINTS automatic 
  16 16 1   0 0 0 

