 &CONTROL
                 calculation = 'nscf' ,
                      outdir = './tmp/' ,
                  pseudo_dir = '/home/deleted/pseudo_psl' ,
                      prefix = 'GCl_ip' ,
                   verbosity = 'high' ,
               etot_conv_thr = 1.0D-5 ,
               forc_conv_thr = 4.0D-4 ,
                       nstep = 1000 ,
                    dipfield = .true. ,
 /
 &SYSTEM
                       ibrav = 4,
                           A = 9.88 ,
                           C = 15 ,
                         nat = 34,
                        ntyp = 4,
                     ecutwfc = 40.424239707 ,
                     ecutrho = 404.24239707 ,
                 occupations = 'tetrahedra' ,
                     degauss = 0.01 ,
				   input_dft = 'vdW-DF' ,
    nspin = 2 ,
    starting_magnetization(1) = 0.5,
    starting_magnetization(2) = 0.5,
    starting_magnetization(3) = 0.5,
 /
 &ELECTRONS
            electron_maxstep = 50001,
                    conv_thr = 1.0D-6 ,
                 mixing_mode = 'local-TF' ,
                 mixing_beta = 0.5 ,
 /
ATOMIC_SPECIES
    C   12.01100  C.revpbe-n-kjpaw_psl.0.1.UPF 
   Cl   35.45200  Cl.revpbe-n-kjpaw_psl.0.3.0.UPF 
    O   15.99940  O.revpbe-n-kjpaw_psl.0.1.UPF 
    H   1.008000  H.revpbe-kjpaw_psl.0.1.UPF
ATOMIC_POSITIONS (crystal)
C        0.003468621   0.003491509   0.000539017
C        0.255917787   0.009579900   0.000695933
C        0.502272082   0.003456179   0.000194141
C        0.750338310  -0.001584227  -0.000142993
C        0.000301516   0.250927129   0.000701149
C        0.085949573   0.170778611  -0.000063988
C        0.254327556   0.258405228  -0.001473139
C        0.339016610   0.175829981  -0.000831583
C        0.506310489   0.258390762  -0.000802932
C        0.587077255   0.170743030   0.000189042
C        0.752873215   0.250907730   0.000956616
C        0.833474072   0.164676549   0.000785210
C        0.002687248   0.503114350   0.002266418
C        0.080962956   0.417440831   0.001071806
C        0.245282103   0.502381660  -0.000946410
C        0.325332806   0.422827478  -0.003021742
C        0.599689068   0.422823279  -0.001403971
C        0.759328519   0.502372693   0.000622719
C        0.838733477   0.417418529   0.001737214
C        0.008426629   0.756803165   0.002140780
C        0.086679727   0.671099609   0.002394327
C        0.250618931   0.756785353   0.001399977
C        0.329997815   0.671826113  -0.000452797
C        0.489628818   0.751350944  -0.001805915
Cl       0.544538783   0.586888322  -0.003563930
C        0.763961606   0.751360637  -0.000397574
C        0.844071747   0.671846414   0.001063363
C        0.089092140   0.923325449   0.001263301
C        0.336481134   0.923311264   0.000916698
C        0.583033501   0.915793562  -0.000587210
C        0.835044184   0.915818251   0.000019063
O        0.480895017   0.572907073   0.221466497
O        0.389442353   0.429198098   0.213114395
H        0.709862827   0.388457512   0.205953346
K_POINTS automatic 
  20 20 1   0 0 0 

