 &CONTROL
                 calculation = 'bands' ,
                      outdir = './tmp/' ,
                  pseudo_dir = '/home/deleted/pseudo_psl' ,
                      prefix = 'GF_op' ,
                   verbosity = 'high' ,
               etot_conv_thr = 1.0D-5 ,
               forc_conv_thr = 4.0D-4 ,
                       nstep = 1000 ,
                    dipfield = .true. ,
 /
 &SYSTEM
                       ibrav = 4,
                           A = 9.88 ,
                           C = 15 ,
                         nat = 34,
                        ntyp = 4,
                     ecutwfc = 40.424239707 ,
                     ecutrho = 404.24239707 ,
                 occupations = 'tetrahedra' ,
                     degauss = 0.01 ,
				   input_dft = 'vdW-DF' ,
    nspin = 2 ,
    starting_magnetization(1) = 0.5,
    starting_magnetization(2) = 0.5,
    starting_magnetization(3) = 0.5,
 /
 &ELECTRONS
            electron_maxstep = 50001,
                    conv_thr = 1.0D-6 ,
                 mixing_mode = 'local-TF' ,
                 mixing_beta = 0.5 ,
 /
ATOMIC_SPECIES
    C   12.01100  C.revpbe-n-kjpaw_psl.0.1.UPF 
    F   18.99800  F.revpbe-n-kjpaw_psl.0.1.UPF 
    O   15.99940  O.revpbe-n-kjpaw_psl.0.1.UPF 
    H   1.008000  H.revpbe-kjpaw_psl.0.1.UPF
ATOMIC_POSITIONS (crystal)
C        0.016093075   0.013316419  -0.002475840
C        0.262714458   0.008954232   0.002122578
C        0.513451759   0.013005125   0.006051385
C        0.765440840   0.015320553   0.002068086
C        0.017627836   0.264457464   0.000769701
C        0.099382620   0.179888835   0.002102829
C        0.267065414   0.261125409   0.002395657
C        0.344338373   0.172249887   0.001221223
C        0.510386200   0.260948007  -0.000201470
C        0.596814212   0.179670628   0.000074530
C        0.763090783   0.264230078   0.001137118
C        0.848691835   0.181095884   0.001098139
C        0.014437010   0.512490741   0.001750890
C        0.103859823   0.430468117   0.004366499
C        0.277829151   0.512851390   0.012196096
C        0.358030078   0.423690194   0.005534229
C        0.582125377   0.423489158  -0.002199663
C        0.751096203   0.512125874  -0.008578999
C        0.842894677   0.430111886  -0.001816156
C        0.012880837   0.760985582  -0.003882522
C        0.097320928   0.677869792   0.002662565
C        0.264923983   0.760825995   0.009990743
C        0.351756697   0.681111633   0.023605860
C        0.511875201   0.774795389   0.045558993
F        0.640422083   0.705916829  -0.080243490
C        0.780772901   0.774433763  -0.036306699
C        0.846160035   0.680600332  -0.017177106
C        0.096098575   0.926934480  -0.001908912
C        0.347013742   0.926870041   0.006958229
C        0.599264930   0.933524634   0.017754706
C        0.850039239   0.933088742  -0.012418753
O        0.593253822   0.716113759   0.090726760
O        0.499019431   0.620468624   0.169883225
H        0.467820044   0.515470878   0.146897036
K_POINTS automatic 
  20 20 1   0 0 0 

