&CONTROL
	calculation = 'scf' ,
	outdir = './tmp_subs/' ,
	pseudo_dir = '/home/deleted/pseudo_psl' ,
	prefix = 'GBr_op-subs' ,
	verbosity = 'high' ,
	etot_conv_thr = 1.0D-5 ,
	forc_conv_thr = 4.0D-4 ,
	nstep = 1000 ,
	dipfield = .true. ,
/
&SYSTEM
	ibrav = 4,
	A = 9.88 ,
	C = 15 ,
	nat = 30,
	ntyp = 1,
	ecutwfc = 40.424239707 ,
	ecutrho = 404.24239707 ,
	occupations = 'smearing' ,
	degauss = 0.01 ,
    input_dft = 'vdW-DF' ,
/
&ELECTRONS
	electron_maxstep = 50001,
	conv_thr = 1.0D-6 ,
	mixing_mode = 'local-TF' ,
	mixing_beta = 0.5 ,
/
ATOMIC_SPECIES
	C	12.01100	C.revpbe-n-kjpaw_psl.0.1.UPF 
ATOMIC_POSITIONS crystal 
C       -0.002055459  -0.001424021  -0.002282765
C        0.253689497   0.009530808  -0.000654962
C        0.497693189  -0.000818181  -0.002277810
C        0.746372279  -0.007550036  -0.003520959
C        0.003995907   0.249975388  -0.000972454
C        0.092834151   0.173599521  -0.001736932
C        0.269670223   0.272338256  -0.001527190
C        0.351635593   0.185629096  -0.001083494
C        0.587252935   0.166239305  -0.001943806
C        0.754348376   0.242996559   0.000691859
C        0.835898827   0.160813928  -0.001924294
C       -0.004650555   0.497150345   0.003743876
C        0.082109176   0.416688548   0.000335912
C        0.249160574   0.506630453  -0.000699472
C        0.349697498   0.444379527  -0.001670351
C        0.520477851   0.261252732  -0.002058480
C        0.728585480   0.472331114   0.019620518
C        0.829512135   0.406686860   0.007432983
C       -0.014896510   0.742093702   0.000865689
C        0.073772361   0.664615309   0.003074617
C        0.241164030   0.753125345   0.000728415
C        0.323186593   0.672047738  -0.000583153
C        0.489466094   0.746123478  -0.002214570
C        0.551591134   0.646119969  -0.002244123
C        0.724895707   0.726658015  -0.002219707
C        0.811671120   0.647437141   0.002148072
C        0.079502845   0.916097483  -0.001117990
C        0.330953608   0.921949839  -0.000776072
C        0.579203025   0.913376970  -0.002729630
C        0.823570311   0.904744092  -0.003396449
K_POINTS automatic 
	16 16 1   0 0 0 
