 &CONTROL
                 calculation = 'nscf' ,
                      outdir = './tmp/' ,
                  pseudo_dir = '/home/deleted/pseudo_psl' ,
                      prefix = 'GBr_op' ,
                   verbosity = 'high' ,
               etot_conv_thr = 1.0D-5 ,
               forc_conv_thr = 4.0D-4 ,
                       nstep = 1000 ,
                    dipfield = .true. ,
 /
 &SYSTEM
                       ibrav = 4,
                           A = 9.88 ,
                           C = 15 ,
                         nat = 34,
                        ntyp = 4,
                     ecutwfc = 40.424239707 ,
                     ecutrho = 404.24239707 ,
                 occupations = 'tetrahedra' ,
                     degauss = 0.01 ,
				   input_dft = 'vdW-DF' ,
    nspin = 2 ,
    starting_magnetization(1) = 0.5,
    starting_magnetization(2) = 0.5,
    starting_magnetization(3) = 0.5,
 /
 &ELECTRONS
            electron_maxstep = 50001,
                    conv_thr = 1.0D-6 ,
                 mixing_mode = 'local-TF' ,
                 mixing_beta = 0.5 ,
 /
ATOMIC_SPECIES
    C   12.01100  C.revpbe-n-kjpaw_psl.0.1.UPF 
   Br   79.90350  Br.revpbe-n-kjpaw_psl.0.2.UPF 
    O   15.99940  O.revpbe-n-kjpaw_psl.0.1.UPF 
    H   1.008000  H.revpbe-kjpaw_psl.0.1.UPF
ATOMIC_POSITIONS (crystal)
C       -0.000032105   0.002359879  -0.016888845
C        0.246181103  -0.008026365  -0.016946341
C        0.502825908   0.002384403  -0.017254665
C        0.759227562   0.018030905  -0.017185411
C        0.009319982   0.259209644  -0.016935970
C        0.086484005   0.169704110  -0.016730538
C        0.253429189   0.246295303  -0.016827792
C        0.327235131   0.154051524  -0.016828589
C        0.493298239   0.246313443  -0.017081268
C        0.583658643   0.169734116  -0.017143367
C        0.750327105   0.259240363  -0.017161508
C        0.840261260   0.180116348  -0.017010403
C        0.002521945   0.504638110  -0.017478807
C        0.097927582   0.423944265  -0.017283567
C        0.275307742   0.501581645  -0.017452268
C        0.353680773   0.408309609  -0.017223683
C        0.555080534   0.408317470  -0.017394643
C        0.726719520   0.501599059  -0.017666937
C        0.826441448   0.423976366  -0.017401072
C       -0.011495350   0.748104794  -0.017492103
C        0.083907537   0.667438788  -0.017566603
C        0.259994133   0.748134310  -0.017566332
C        0.359700954   0.670481613  -0.017743195
C        0.531318380   0.763786363  -0.017847816
Br       0.615414365   0.669299136   0.211951578
C        0.732938979   0.763804793  -0.017888053
C        0.811213939   0.670473621  -0.017860650
C        0.077112344   0.912842121  -0.017044607
C        0.336145965   0.912875831  -0.017262000
C        0.593193893   0.925808757  -0.017479086
C        0.833049231   0.925811617  -0.017316686
O        0.677126257   0.864981549   0.481277776
O        0.727688973   0.774970440   0.466089786
H        0.624207005   0.652746417   0.306770787
K_POINTS automatic 
  20 20 1   0 0 0 

