 &CONTROL
                 calculation = 'scf' ,
                      outdir = './tmp/' ,
                  pseudo_dir = '/home/deleted/pseudo_psl' ,
                      prefix = 'GF_op' ,
                   verbosity = 'high' ,
               etot_conv_thr = 1.0D-5 ,
               forc_conv_thr = 4.0D-4 ,
                       nstep = 1000 ,
                    dipfield = .true. ,
 /
 &SYSTEM
                       ibrav = 4,
                           A = 9.88 ,
                           C = 15 ,
                         nat = 32,
                        ntyp = 3,
                     ecutwfc = 40.424239707 ,
                     ecutrho = 404.24239707 ,
                 occupations = 'smearing' ,
                     degauss = 0.01 ,
				   input_dft = 'vdW-DF' ,
 /
 &ELECTRONS
            electron_maxstep = 50001,
                    conv_thr = 1.0D-6 ,
                 mixing_mode = 'local-TF' ,
                 mixing_beta = 0.5 ,
 /
ATOMIC_SPECIES
    C   12.01100  C.revpbe-n-kjpaw_psl.0.1.UPF 
    F   18.99800  F.revpbe-n-kjpaw_psl.0.1.UPF 
    O   15.99940  O.revpbe-n-kjpaw_psl.0.1.UPF 
ATOMIC_POSITIONS crystal 
C       -0.001108684  -0.003872066   0.008675040
C        0.243559943  -0.012880116   0.007672745
C        0.497236618  -0.003872066   0.008675040
C        0.751887771   0.003775544   0.011471980
C        0.002424824   0.248577621   0.008798153
C        0.083260071   0.162644269   0.007952377
C        0.249829425   0.240761185   0.007406055
C        0.325082708   0.150165419   0.006994694
C        0.490931761   0.240761185   0.007406055
C        0.579384197   0.162644269   0.007952377
C        0.746152797   0.248577621   0.008798153
C        0.834101339   0.168202678   0.009820476
C       -0.002526633   0.494946734   0.009432764
C        0.089945541   0.413781559   0.009194041
C        0.266204031   0.493954772   0.009914680
C        0.347665547   0.403013561   0.008748788
C        0.555348013   0.403013561   0.008748788
C        0.727750742   0.493954772   0.009914680
C        0.823836017   0.413781559   0.009194041
C       -0.009006670   0.741147924   0.009494238
C        0.079981186   0.659962373   0.009276420
C        0.250154594   0.741147924   0.009494238
C        0.340826970   0.661973098   0.011371062
C        0.506744961   0.755304392   0.013352703
F        0.659370227   0.818740456  -0.141639735
C        0.748559431   0.755304392   0.013352703
C        0.821146128   0.661973098   0.011371062
C        0.076526066   0.907165726   0.008491183
C        0.330639659   0.907165726   0.008491183
C        0.585393829   0.918985665   0.011003305
C        0.833591835   0.918985665   0.011003305
O        0.590147168   0.680294336   0.023765141
K_POINTS automatic 
  16 16 1   0 0 0 

