 &CONTROL
                 calculation = 'relax' ,
                      outdir = './tmp/' ,
                  pseudo_dir = '/home/deleted/pseudo_psl' ,
                      prefix = 'GF_op' ,
                   verbosity = 'high' ,
               etot_conv_thr = 1.0D-5 ,
               forc_conv_thr = 4.0D-4 ,
                       nstep = 1000 ,
                    dipfield = .true. ,
 /
 &SYSTEM
                       ibrav = 4,
                           A = 9.88 ,
                           C = 15 ,
                         nat = 32,
                        ntyp = 3,
                     ecutwfc = 40.424239707 ,
                     ecutrho = 404.24239707 ,
                 occupations = 'smearing' ,
                     degauss = 0.01 ,
				   input_dft = 'vdW-DF' ,
 /
 &ELECTRONS
            electron_maxstep = 50001,
                    conv_thr = 1.0D-6 ,
                 mixing_mode = 'local-TF' ,
                 mixing_beta = 0.5 ,
 /
 &IONS
                ion_dynamics = 'bfgs' ,
 /
ATOMIC_SPECIES
    C   12.01100  C.revpbe-n-kjpaw_psl.0.1.UPF 
    F   18.99800  F.revpbe-n-kjpaw_psl.0.1.UPF 
    O   15.99940  O.revpbe-n-kjpaw_psl.0.1.UPF 
ATOMIC_POSITIONS crystal 
C        0.002670387   0.001313041  -0.001407298
C        0.246205804  -0.007588393  -0.004322909
C        0.498642654   0.001313041  -0.001407298
C        0.753697570   0.007395141   0.006473015
C        0.003857260   0.252145517   0.001061110
C        0.085944982   0.167609304  -0.001508381
C        0.252850274   0.245787527  -0.003109716
C        0.327598195   0.155196392  -0.004336965
C        0.492937254   0.245787527  -0.003109716
C        0.581664321   0.167609304  -0.001508381
C        0.748288257   0.252145517   0.001061110
C        0.835843878   0.171687757   0.003268340
C       -0.000842211   0.498315577   0.000278760
C        0.090676227   0.417372970   0.000655288
C        0.265275094   0.496458843   0.000565540
C        0.349554414   0.408007918  -0.001420881
C        0.558453503   0.408007918  -0.001420881
C        0.731183750   0.496458843   0.000565540
C        0.826696742   0.417372970   0.000655288
C       -0.004195247   0.745510384  -0.002096484
C        0.081638430   0.663276861  -0.002127621
C        0.249705631   0.745510384  -0.002096484
C        0.338023246   0.663877248   0.001570742
C        0.497581129   0.763891453   0.005240889
F        0.591708082   0.683416165   0.032264401
C        0.766310324   0.763891453   0.005240889
C        0.825854001   0.663877248   0.001570742
C        0.079575932   0.911701044  -0.003145820
C        0.332125111   0.911701044  -0.003145820
C        0.587374294   0.923808336   0.004513168
C        0.836434041   0.923808336   0.004513168
O        0.591708082   0.683416165   0.132264401
K_POINTS automatic 
  4 4 1   0 0 0 

