 &CONTROL
                 calculation = 'bands' ,
                      outdir = './tmp/' ,
                  pseudo_dir = '/home/deleted/pseudo_psl' ,
                      prefix = 'GI_op' ,
                   verbosity = 'high' ,
               etot_conv_thr = 1.0D-5 ,
               forc_conv_thr = 4.0D-4 ,
                       nstep = 1000 ,
                    dipfield = .true. ,
 /
 &SYSTEM
                       ibrav = 4,
                           A = 9.88 ,
                           C = 15 ,
                         nat = 32,
                        ntyp = 3,
                     ecutwfc = 40.424239707 ,
                     ecutrho = 404.24239707 ,
                 occupations = 'tetrahedra' ,
                     degauss = 0.01 ,
				   input_dft = 'vdW-DF' ,
    nspin = 2 ,
    starting_magnetization(1) = 0.5,
    starting_magnetization(2) = 0.5,
    starting_magnetization(3) = 0.5,
 /
 &ELECTRONS
            electron_maxstep = 50001,
                    conv_thr = 1.0D-6 ,
                 mixing_mode = 'local-TF' ,
                 mixing_beta = 0.5 ,
 /
ATOMIC_SPECIES
    C   12.01100  C.revpbe-n-kjpaw_psl.0.1.UPF 
    I  126.90400  I.revpbe-n-kjpaw_psl.0.2.UPF 
    O   15.99940  O.revpbe-n-kjpaw_psl.0.1.UPF 
ATOMIC_POSITIONS (crystal)
C        0.000862468   0.004579781  -0.005000947
C        0.247076328  -0.005847345  -0.004702008
C        0.503717313   0.004579781  -0.005000947
C        0.759877000   0.019754000  -0.005324643
C        0.009919789   0.261236120  -0.004504756
C        0.087306525   0.171815791  -0.004606203
C        0.254284989   0.248563277  -0.004678994
C        0.328308810   0.156617622  -0.004565443
C        0.494278288   0.248563277  -0.004678994
C        0.584509265   0.171815791  -0.004606203
C        0.751316331   0.261236120  -0.004504756
C        0.841138427   0.182276856  -0.004648851
C        0.003247511   0.506495023  -0.004820981
C        0.098456002   0.426098289  -0.004706895
C        0.276281839   0.504030316  -0.005126931
C        0.354408908   0.410732528  -0.005035599
C        0.556323620   0.410732528  -0.005035599
C        0.727748478   0.504030316  -0.005126931
C        0.827642286   0.426098289  -0.004706895
C       -0.010258107   0.750373334  -0.005228179
C        0.084987153   0.669974307  -0.005100824
C        0.260631441   0.750373334  -0.005228179
C        0.360456407   0.672736121  -0.005603802
C        0.531887144   0.765824834  -0.005731273
I        0.543178830   0.586357660   0.248947527
C        0.733937689   0.765824834  -0.005731273
C        0.812279713   0.672736121  -0.005603802
C        0.078308779   0.915197379  -0.004951452
C        0.336888599   0.915197379  -0.004951452
C        0.593995185   0.928051247  -0.005617640
C        0.834056062   0.928051247  -0.005617640
O        0.632946925   0.765893849   0.168467228
K_POINTS automatic 
  20 20 1   0 0 0 

