 &CONTROL
                 calculation = 'relax' ,
                      outdir = './tmp/' ,
                  pseudo_dir = '/home/deleted/pseudo_psl' ,
                      prefix = 'GCl_ip' ,
                   verbosity = 'high' ,
               etot_conv_thr = 1.0D-5 ,
               forc_conv_thr = 4.0D-4 ,
                       nstep = 1000 ,
                    dipfield = .true. ,
 /
 &SYSTEM
                       ibrav = 4,
                           A = 9.88 ,
                           C = 15 ,
                         nat = 34,
                        ntyp = 4,
                     ecutwfc = 40.424239707 ,
                     ecutrho = 404.24239707 ,
                 occupations = 'smearing' ,
                     degauss = 0.01 ,
				   input_dft = 'vdW-DF' ,
    nspin = 2 ,
    starting_magnetization(1) = 0.5,
    starting_magnetization(2) = 0.5,
    starting_magnetization(3) = 0.5,
	starting_magnetization(4) = 0.5,
 /
 &ELECTRONS
            electron_maxstep = 50001,
                    conv_thr = 1.0D-6 ,
                 mixing_mode = 'local-TF' ,
                 mixing_beta = 0.5 ,
 /
 &IONS
                ion_dynamics = 'bfgs' ,
 /
ATOMIC_SPECIES
    C   12.01100  C.revpbe-n-kjpaw_psl.0.1.UPF 
   Cl   35.45200  Cl.revpbe-n-kjpaw_psl.0.3.0.UPF 
    O   15.99940  O.revpbe-n-kjpaw_psl.0.1.UPF 
    H   1.008000  H.revpbe-kjpaw_psl.0.1.UPF
ATOMIC_POSITIONS (crystal)
C        0.002025881   0.002901223  -0.002593961
C        0.254501145   0.009002289  -0.002667320
C        0.500875342   0.002901223  -0.002593961
C        0.748919475  -0.002161050  -0.002778304
C       -0.001115116   0.250357412  -0.001981119
C        0.084508709   0.170179854  -0.002696955
C        0.252910033   0.257833744  -0.003781292
C        0.337623195   0.175246391  -0.003669843
C        0.504923711   0.257833744  -0.003781292
C        0.585671144   0.170179854  -0.002696955
C        0.751472528   0.250357412  -0.001981119
C        0.832055138   0.164110276  -0.001992084
C        0.001288809   0.502577618  -0.001081225
C        0.079554165   0.416881515  -0.001617610
C        0.243886395   0.501815741  -0.002979249
C        0.323970199   0.422262978  -0.004735097
C        0.598292778   0.422262978  -0.004735097
C        0.757929345   0.501815741  -0.002979249
C        0.837327350   0.416881515  -0.001617610
C        0.007019342   0.756244770  -0.001753743
C        0.085282818   0.670565639  -0.001245396
C        0.249225428   0.756244770  -0.001753743
C        0.328613323   0.671284599  -0.002744351
C        0.488247809   0.750772803  -0.003882328
Cl       0.543163182   0.586326367  -0.006331528
C        0.762524992   0.750772803  -0.003882328
C        0.842671275   0.671284599  -0.002744351
C        0.087677702   0.922760980  -0.002320422
C        0.335083278   0.922760980  -0.002320422
C        0.581608084   0.915220852  -0.003027858
C        0.833612767   0.915220852  -0.003027858
O        0.510450513   0.520901025   0.205775622
O        0.481532588   0.463065176   0.282218045
H        0.63178515    0.424086296   0.243996832
K_POINTS automatic 
  4 4 1   0 0 0 

