&CONTROL
	calculation = 'scf' ,
	outdir = './tmp/' ,
	pseudo_dir = '/home/deleted/pseudo_psl' ,
	prefix = 'GCl_op' ,
	verbosity = 'high' ,
	etot_conv_thr = 1.0D-5 ,
	forc_conv_thr = 4.0D-4 ,
	nstep = 1000 ,
	dipfield = .true. ,
/
&SYSTEM
	ibrav = 4,
	A = 9.88 ,
	C = 15 ,
	nat = 31,
	ntyp = 2,
	ecutwfc = 40.424239707 ,
	ecutrho = 404.24239707 ,
	occupations = 'tetrahedra' ,
	degauss = 0.01 ,
	input_dft = 'vdW-DF' ,
    nspin = 2 ,
    starting_magnetization(1) = 0.5,
    starting_magnetization(2) = 0.5,
/
&ELECTRONS
	electron_maxstep = 50001,
	conv_thr = 1.0D-6 ,
	mixing_mode = 'local-TF' ,
	mixing_beta = 0.5 ,
/
ATOMIC_SPECIES
	C	12.01100	C.revpbe-n-kjpaw_psl.0.1.UPF 
	Cl	35.45200	Cl.revpbe-n-kjpaw_psl.0.3.0.UPF  
ATOMIC_POSITIONS (crystal)
C        0.001834628   0.000833563  -0.003551458
C        0.246815128  -0.006369745  -0.012174436
C        0.498998935   0.000833563  -0.003551458
C        0.752964656   0.005929311   0.015608981
C        0.002888359   0.251252377  -0.002235268
C        0.085297583   0.167300786  -0.006933959
C        0.252658294   0.246872109  -0.011228849
C        0.328449852   0.156899706  -0.013763879
C        0.494213814   0.246872109  -0.011228849
C        0.582003202   0.167300786  -0.006933959
C        0.748364017   0.251252377  -0.002235268
C        0.834983543   0.169967086   0.003558938
C       -0.000855315   0.498289371  -0.003475946
C        0.089312943   0.416852880  -0.002992007
C        0.263146472   0.497373969  -0.001005678
C        0.346845365   0.409252544  -0.006878123
C        0.562407177   0.409252544  -0.006878123
C        0.734227497   0.497373969  -0.001005678
C        0.827539936   0.416852880  -0.002992007
C       -0.003389279   0.745949969  -0.005734696
C        0.081662947   0.663325896  -0.007724038
C        0.249339248   0.745949969  -0.005734696
C        0.335668299   0.664746704   0.006081827
C        0.494098188   0.761670314   0.025739989
Cl       0.591764147   0.683528294   0.089552618
C        0.767572126   0.761670314   0.025739989
C        0.829078404   0.664746704   0.006081827
C        0.080063422   0.912354835  -0.008009916
C        0.332291413   0.912354835  -0.008009916
C        0.585061321   0.923088327   0.014290353
C        0.838027005   0.923088327   0.014290353
K_POINTS automatic 
  20 20 1   0 0 0 
