 &CONTROL
                 calculation = 'scf' ,
                      outdir = './tmp/' ,
                  pseudo_dir = '/home/deleted/pseudo_psl' ,
                      prefix = 'GBr_op' ,
                   verbosity = 'high' ,
               etot_conv_thr = 1.0D-5 ,
               forc_conv_thr = 4.0D-4 ,
                       nstep = 1000 ,
                    dipfield = .true. ,
 /
 &SYSTEM
                       ibrav = 4,
                           A = 9.88 ,
                           C = 15 ,
                         nat = 32,
                        ntyp = 3,
                     ecutwfc = 40.424239707 ,
                     ecutrho = 404.24239707 ,
                 occupations = 'smearing' ,
                     degauss = 0.01 ,
				   input_dft = 'vdW-DF' ,
 /
 &ELECTRONS
            electron_maxstep = 50001,
                    conv_thr = 1.0D-6 ,
                 mixing_mode = 'local-TF' ,
                 mixing_beta = 0.5 ,
 /
ATOMIC_SPECIES
    C   12.01100  C.revpbe-n-kjpaw_psl.0.1.UPF 
   Br   79.90350  Br.revpbe-n-kjpaw_psl.0.2.UPF 
    O   15.99940  O.revpbe-n-kjpaw_psl.0.1.UPF 
ATOMIC_POSITIONS crystal 
C        0.000647619   0.004246197  -0.005475323
C        0.246876345  -0.006247308  -0.005096363
C        0.503598578   0.004246197  -0.005475323
C        0.759700237   0.019400473  -0.005823869
C        0.009727480   0.260922129  -0.005213241
C        0.087131511   0.171486585  -0.005220151
C        0.254120331   0.248215234  -0.005281955
C        0.328134955   0.156269913  -0.005130381
C        0.494094902   0.248215234  -0.005281955
C        0.584355073   0.171486585  -0.005220151
C        0.751194649   0.260922129  -0.005213241
C        0.840994546   0.181989093  -0.005323474
C        0.003083180   0.506166360  -0.005366817
C        0.098279173   0.425786039  -0.005318024
C        0.276231992   0.503705265  -0.005618440
C        0.354366791   0.410386859  -0.005672287
C        0.556020067   0.410386859  -0.005672287
C        0.727473273   0.503705265  -0.005618440
C        0.827506866   0.425786039  -0.005318024
C       -0.010502668   0.750036068  -0.005476138
C        0.084858627   0.669717255  -0.005478315
C        0.260538737   0.750036068  -0.005476138
C        0.360413451   0.672337897  -0.005888616
C        0.531997650   0.765396780  -0.005981017
Br       0.547539277   0.595078555   0.233819951
C        0.733399129   0.765396780  -0.005981017
C        0.811924445   0.672337897  -0.005888616
C        0.078123564   0.914864448  -0.005252554
C        0.336740883   0.914864448  -0.005252554
C        0.593871345   0.927720759  -0.006062602
C        0.833849413   0.927720759  -0.006062602
O        0.633708573   0.767417146   0.164653297
K_POINTS automatic 
  16 16 1   0 0 0 

