 &CONTROL
                 calculation = 'nscf' ,
                      outdir = './tmp/' ,
                  pseudo_dir = '/home/deleted/pseudo_psl' ,
                      prefix = 'GBr_ip' ,
                    dipfield = .true. ,
                   verbosity = 'high',
                       nstep = 1000,
               forc_conv_thr = 4.0D-4,
               etot_conv_thr = 1.0D-5
 /
 &SYSTEM
                       ibrav = 4,
                           A = 9.88 ,
                           C = 15 ,
                         nat = 31,
                        ntyp = 2,
                     ecutwfc = 40.424239707 ,
                     ecutrho = 404.24239707 ,
                 occupations = 'tetrahedra' ,
                     degauss = 0.01 ,
				   input_dft = 'vdW-DF' ,
 /
 &ELECTRONS
            electron_maxstep = 50001,
                    conv_thr = 1.0D-6 ,
                 mixing_mode = 'local-TF' ,
                 mixing_beta = 0.5 ,
 /
ATOMIC_SPECIES
    C   12.01100  C.revpbe-n-kjpaw_psl.0.1.UPF 
   Br   79.90350  Br.revpbe-n-kjpaw_psl.0.2.UPF 
ATOMIC_POSITIONS crystal 
C       -0.004003990  -0.002429397   0.000000000
C        0.232810008  -0.034379983   0.000000000
C        0.501574593  -0.002429397   0.000000000
C        0.747803061  -0.004393878   0.000000000
C       -0.006966197   0.249641821   0.000000000
C        0.071377101   0.165855762   0.000000000
C        0.227980114   0.279853924   0.000000000
Br       0.336753026   0.173506052   0.000000000
C        0.551873810   0.279853924   0.000000000
C        0.594478661   0.165855762   0.000000000
C        0.756608018   0.249641821   0.000000000
C        0.831001561   0.162003123   0.000000000
C        0.000465032   0.500930063   0.000000000
C        0.078505168   0.417232040   0.000000000
C        0.241806401   0.504915348   0.000000000
C        0.326423635   0.430447488   0.000000000
C        0.604023852   0.430447488   0.000000000
C        0.763108947   0.504915348   0.000000000
C        0.838726871   0.417232040   0.000000000
C       -0.002834400   0.745907694   0.000000000
C        0.082683638   0.665367277   0.000000000
C        0.248742094   0.745907694   0.000000000
C        0.330628193   0.667071064   0.000000000
C        0.497425459   0.742143232   0.000000000
C        0.580406633   0.660813267   0.000000000
C        0.744717773   0.742143232   0.000000000
C        0.836442870   0.667071064   0.000000000
C        0.075633902   0.909147445   0.000000000
C        0.333513542   0.909147445   0.000000000
C        0.581861898   0.911623954   0.000000000
C        0.829762055   0.911623954   0.000000000
K_POINTS automatic 
  20 20 1   0 0 0 

