&CONTROL
	calculation = 'scf' ,
	outdir = './tmp_subs/' ,
	pseudo_dir = '/home/deleted/pseudo_psl' ,
	prefix = 'GCl_op-subs' ,
	verbosity = 'high' ,
	etot_conv_thr = 1.0D-5 ,
	forc_conv_thr = 4.0D-4 ,
	nstep = 1000 ,
	dipfield = .true. ,
/
&SYSTEM
	ibrav = 4,
	A = 9.88 ,
	C = 15 ,
	nat = 30,
	ntyp = 1,
	ecutwfc = 40.424239707 ,
	ecutrho = 404.24239707 ,
	occupations = 'smearing' ,
	degauss = 0.01 ,
    input_dft = 'vdW-DF' ,
/
&ELECTRONS
	electron_maxstep = 50001,
	conv_thr = 1.0D-6 ,
	mixing_mode = 'local-TF' ,
	mixing_beta = 0.5 ,
/
ATOMIC_SPECIES
	C	12.01100	C.revpbe-n-kjpaw_psl.0.1.UPF 
ATOMIC_POSITIONS crystal 
C       -0.002280614  -0.001467925  -0.003617148
C        0.252690298   0.008317445  -0.002101190
C        0.497280983  -0.001467886  -0.003257118
C        0.746188371  -0.007315295  -0.004477764
C        0.003435541   0.249783201  -0.001541529
C        0.092222681   0.173240456  -0.002820597
C        0.268609316   0.271240788  -0.002802795
C        0.349630576   0.183504542  -0.002664688
C        0.586271651   0.165715125  -0.002562730
C        0.753813000   0.243468127   0.001607610
C        0.835434353   0.161005493  -0.002179108
C       -0.004659417   0.496990651   0.003845692
C        0.082004343   0.416408853  -0.000262806
C        0.249111138   0.506075201  -0.001508944
C        0.349280607   0.443350735  -0.002649963
C        0.517284227   0.258399167  -0.004245694
C        0.730715953   0.475507826   0.024802891
C        0.830008523   0.406793407   0.009296538
C       -0.014171236   0.742796670  -0.000032155
C        0.074142126   0.664659717   0.002679843
C        0.241117656   0.752525561  -0.000159424
C        0.323255346   0.671413775  -0.001375203
C        0.489551112   0.745585931  -0.003003451
C        0.552095012   0.646006196  -0.002904207
C        0.725798490   0.727383948  -0.002772326
C        0.813831012   0.649978307   0.002435159
C        0.079366814   0.915961803  -0.002627346
C        0.330570661   0.921238550  -0.002037547
C        0.578988697   0.912953346  -0.003530202
C        0.823745352   0.905296422  -0.004606648
K_POINTS automatic 
	16 16 1   0 0 0 
