&PROJWFC
  outdir = './tmp',
  prefix = 'F2',
  filpdos = 'F2-pdos',
  ngauss = 1,
  degauss = 0.01,
  DeltaE = 0.01,
  lsym = .true.
/
