 &CONTROL
                 calculation = 'nscf' ,
                      outdir = './tmp/' ,
                  pseudo_dir = '/home/deleted/pseudo_psl' ,
                      prefix = 'GCl_ip' ,
                   verbosity = 'high' ,
               etot_conv_thr = 1.0D-5 ,
               forc_conv_thr = 4.0D-4 ,
                       nstep = 1000 ,
                    dipfield = .true. ,
 /
 &SYSTEM
                       ibrav = 4,
                           A = 9.88 ,
                           C = 15 ,
                         nat = 34,
                        ntyp = 4,
                     ecutwfc = 40.424239707 ,
                     ecutrho = 404.24239707 ,
                 occupations = 'tetrahedra' ,
                     degauss = 0.01 ,
				   input_dft = 'vdW-DF' ,
    nspin = 2 ,
    starting_magnetization(1) = 0.5,
    starting_magnetization(2) = 0.5,
    starting_magnetization(3) = 0.5,
 /
 &ELECTRONS
            electron_maxstep = 50001,
                    conv_thr = 1.0D-6 ,
                 mixing_mode = 'local-TF' ,
                 mixing_beta = 0.5 ,
 /
ATOMIC_SPECIES
    C   12.01100  C.revpbe-n-kjpaw_psl.0.1.UPF 
   Cl   35.45200  Cl.revpbe-n-kjpaw_psl.0.3.0.UPF 
    O   15.99940  O.revpbe-n-kjpaw_psl.0.1.UPF 
    H   1.008000  H.revpbe-kjpaw_psl.0.1.UPF
ATOMIC_POSITIONS (crystal)
C        0.001317912   0.010672479  -0.007019715
C        0.252083564   0.011764859  -0.006161888
C        0.501910635   0.013550839   0.004446319
C        0.748901481   0.010053183   0.002480447
C        0.000319990   0.260525847   0.005968727
C        0.084115717   0.176441038   0.003435947
C        0.248682956   0.257284854   0.009203509
C        0.334022342   0.179353846  -0.007936732
C        0.501836767   0.261903915  -0.021512722
C        0.585181970   0.179493329  -0.008063074
C        0.751289439   0.261334724  -0.006705599
C        0.834453767   0.177311387  -0.000649819
C        0.001041542   0.511096285   0.000359475
C        0.083244385   0.428031720   0.012915113
C        0.246024044   0.511949440   0.035607698
C        0.319682821   0.413301895   0.055328531
C        0.591327108   0.420173009  -0.047558039
C        0.752858143   0.508914099  -0.030643016
C        0.834853251   0.427349302  -0.011305914
C        0.003022939   0.761255507  -0.012777138
C        0.085241552   0.677641218  -0.001722045
C        0.250323582   0.760853392   0.010596899
C        0.328257487   0.676666480   0.035276409
C        0.497432272   0.775963985   0.060079824
Cl       0.504936563   0.509025354  -0.109325282
C        0.765194659   0.767732014  -0.022957096
C        0.836840499   0.678408572  -0.026021612
C        0.084522737   0.927594395  -0.008480052
C        0.334446367   0.928457570   0.002736062
C        0.585257629   0.932593193   0.015356812
C        0.833762940   0.926558487  -0.008541745
O        0.420206876   0.443803775   0.112404414
O        0.559646076   0.746095764   0.122175623
H        0.757924288   0.557083994   0.188855747
K_POINTS automatic 
  20 20 1   0 0 0 

