 &CONTROL
                 calculation = 'bands' ,
                      outdir = './tmp/' ,
                  pseudo_dir = '/home/deleted/pseudo_psl' ,
                      prefix = 'MVG_txc' ,
                    dipfield = .true. ,
                   verbosity = 'high',
                       nstep = 1000,
               forc_conv_thr = 4.0D-4,
               etot_conv_thr = 1.0D-5
 /
 &SYSTEM
                       ibrav = 4,
                           A = 9.88 ,
                           C = 15 ,
                         nat = 33,
                        ntyp = 2,
                     ecutwfc = 40.424239707 ,
                     ecutrho = 404.24239707 ,
                 occupations = 'tetrahedra' ,
                     degauss = 0.01 ,
				   input_dft = 'vdW-DF' ,
    nspin = 2 ,
    starting_magnetization(1) = 0.5,
	starting_magnetization(2) = 0.5,
 /
 &ELECTRONS
            electron_maxstep = 50001,
                    conv_thr = 1.0D-6 ,
                 mixing_mode = 'local-TF' ,
                 mixing_beta = 0.5 ,
 /
 &IONS
                ion_dynamics = 'bfgs' ,
 /
ATOMIC_SPECIES
    C   12.01100  C.revpbe-n-kjpaw_psl.0.1.UPF 
    O   15.99940  O.revpbe-n-kjpaw_psl.0.1.UPF 
ATOMIC_POSITIONS crystal 
C        0.004983531   0.010271739  -0.016556300
C        0.254497963   0.010699900  -0.013312649
C        0.504050585   0.011240096  -0.006627709
C        0.755471762   0.011163354  -0.005167066
C        0.004078731   0.259780527  -0.005230332
C        0.087118431   0.175812196  -0.009738498
C        0.251251980   0.254883755   0.001824774
C        0.336677904   0.177039338  -0.008155465
C        0.505878409   0.264868255  -0.009903922
C        0.587999846   0.178869823  -0.008722326
C        0.753943194   0.261308275  -0.008272689
C        0.838101501   0.177144417  -0.007660965
C        0.004017710   0.511193523  -0.006528784
C        0.088417388   0.428631163  -0.000116651
C        0.250931012   0.510647193   0.017021943
C        0.310357805   0.405734876   0.050140761
C        0.586864979   0.428470235  -0.015389620
C        0.750459424   0.509403486  -0.009825321
C        0.836405418   0.427247516  -0.008652939
C        0.004618312   0.760783491  -0.013242148
C        0.088415611   0.677309638  -0.008765643
C        0.255053311   0.760203925  -0.003633952
C        0.338285447   0.676950123   0.012844024
C        0.504592646   0.764278857   0.017017342
C        0.609509872   0.704840661   0.050162559
C        0.760388561   0.763987704   0.001855583
C        0.838292781   0.678597468  -0.008052570
C        0.088014232   0.927275578  -0.015318156
C        0.337940701   0.926859658  -0.008835292
C        0.586595522   0.926810185  -0.000125411
C        0.839436031   0.928115821  -0.009732111
O        0.603365900   0.662957047   0.128355499
O        0.352166775   0.411866742   0.128344036
K_POINTS crystal_b 
4
0.0000000000    0.0000000000    0.0000000000 17
0.0000000000    0.5000000000    0.0000000000 10
0.3333333333    0.3333333333    0.0000000000 20
0.0000000000    0.0000000000    0.0000000000 1

