 &CONTROL
                 calculation = 'nscf' ,
                      outdir = './tmp/' ,
                  pseudo_dir = '/home/deleted/pseudo_psl' ,
                      prefix = 'GF_ip' ,
                   verbosity = 'high' ,
               etot_conv_thr = 1.0D-5 ,
               forc_conv_thr = 4.0D-4 ,
                       nstep = 1000 ,
                    dipfield = .true. ,
 /
 &SYSTEM
                       ibrav = 4,
                           A = 9.88 ,
                           C = 15 ,
                         nat = 34,
                        ntyp = 4,
                     ecutwfc = 40.424239707 ,
                     ecutrho = 404.24239707 ,
                 occupations = 'tetrahedra' ,
                     degauss = 0.01 ,
				   input_dft = 'vdW-DF' ,
 /
 &ELECTRONS
            electron_maxstep = 50001,
                    conv_thr = 1.0D-6 ,
                 mixing_mode = 'local-TF' ,
                 mixing_beta = 0.5 ,
 /
ATOMIC_SPECIES
    C   12.01100  C.revpbe-n-kjpaw_psl.0.1.UPF 
    F   18.99800  F.revpbe-n-kjpaw_psl.0.1.UPF 
    O   15.99940  O.revpbe-n-kjpaw_psl.0.1.UPF 
    H   1.008000  H.revpbe-kjpaw_psl.0.1.UPF
ATOMIC_POSITIONS crystal 
C       -0.002905820   0.009742569   0.007031190
C        0.246123079   0.009595009   0.001792060
C        0.494845339   0.008121273  -0.005930619
C        0.745211422   0.006631793  -0.000477602
C       -0.004498267   0.258399761  -0.004513680
C        0.078956662   0.175690928  -0.003699983
C        0.246809668   0.260587965  -0.008223436
C        0.330340771   0.176163155   0.005089037
C        0.494545217   0.254250860   0.019193823
C        0.578263076   0.173468153   0.006867188
C        0.744823041   0.257364715   0.005608887
C        0.827530966   0.173807795  -0.000435542
C       -0.005570754   0.508655353  -0.000656209
C        0.077336629   0.424781396  -0.010760392
C        0.244047205   0.506182089  -0.025812269
C        0.319519878   0.418914133  -0.028615176
C        0.581669048   0.410378557   0.058918278
C        0.748630316   0.508073686   0.034698881
C        0.828263117   0.425578110   0.011436592
C       -0.003842555   0.759076290   0.013393492
C        0.077999012   0.675314145   0.000598942
C        0.244376456   0.759003968  -0.010652431
C        0.326343473   0.676530649  -0.028886789
C        0.488346872   0.767277055  -0.041087181
F        0.564424748   0.696923951  -0.077203904
C        0.761913450   0.772050993   0.052420901
C        0.832743497   0.676546165   0.035906171
C        0.079939066   0.926054460   0.007640723
C        0.328688897   0.925290726  -0.005009083
C        0.578523471   0.925847982  -0.016390188
C        0.831965771   0.927873978   0.016410314
O        0.519519571   0.446631275   0.122060473
O        0.635840322   0.727113223   0.101546062
H        0.587751485   0.609193345   0.121640842
K_POINTS automatic 
  20 20 1   0 0 0 

