 &CONTROL
                 calculation = 'scf' ,
                      outdir = './tmp_subs/' ,
                  pseudo_dir = '/home/deleted/pseudo_psl' ,
                      prefix = 'GI_op_subs' ,
                   verbosity = 'high' ,
               etot_conv_thr = 1.0D-5 ,
               forc_conv_thr = 4.0D-4 ,
                       nstep = 1000 ,
                    dipfield = .true. ,
 /
 &SYSTEM
                       ibrav = 4,
                           A = 9.88 ,
                           C = 15 ,
                         nat = 31,
                        ntyp = 2,
                     ecutwfc = 40.424239707 ,
                     ecutrho = 404.24239707 ,
                 occupations = 'smearing' ,
                     degauss = 0.01 ,
				   input_dft = 'vdW-DF' ,
 /
 &ELECTRONS
            electron_maxstep = 50001,
                    conv_thr = 1.0D-6 ,
                 mixing_mode = 'local-TF' ,
                 mixing_beta = 0.5 ,
 /
ATOMIC_SPECIES
    C   12.01100  C.revpbe-n-kjpaw_psl.0.1.UPF 
    I  126.90400  I.revpbe-n-kjpaw_psl.0.2.UPF 
ATOMIC_POSITIONS crystal 
C        0.000868097   0.004633382  -0.004861570
C        0.247088712  -0.005822578  -0.004518136
C        0.503765285   0.004633382  -0.004861570
C        0.759903638   0.019807275  -0.005130481
C        0.009949042   0.261297464  -0.004677280
C        0.087348216   0.171884594  -0.004635980
C        0.254330160   0.248605760  -0.004719710
C        0.328318034   0.156636071  -0.004518001
C        0.494275601   0.248605760  -0.004719710
C        0.584536378   0.171884594  -0.004635980
C        0.751348422   0.261297464  -0.004677280
C        0.841156059   0.182312120  -0.004716958
C        0.003288458   0.506576917  -0.004934456
C        0.098510209   0.426153200  -0.004900650
C        0.276382200   0.504063808  -0.005239920
C        0.354557536   0.410761528  -0.005176086
C        0.556203992   0.410761528  -0.005176086
C        0.727681607   0.504063808  -0.005239920
C        0.827642990   0.426153200  -0.004900650
C       -0.010286458   0.750427951  -0.004965224
C        0.085020111   0.670040221  -0.004939158
C        0.260714409   0.750427951  -0.004965224
C        0.360576790   0.672763367  -0.005486695
C        0.532044874   0.765866557  -0.005600223
I        0.541920579   0.583841157   0.246990603
C        0.733821681   0.765866557  -0.005600223
C        0.812186576   0.672763367  -0.005486695
C        0.078305807   0.915245034  -0.004702378
C        0.336939226   0.915245034  -0.004702378
C        0.594033003   0.928089099  -0.005426024
C        0.834056096   0.928089099  -0.005426024
K_POINTS automatic 
  16 16 1   0 0 0 

