 &CONTROL
                 calculation = 'scf' ,
                      outdir = './tmp/' ,
                  pseudo_dir = '/home/deleted/pseudo_psl' ,
                      prefix = 'GI_ip' ,
                   verbosity = 'high' ,
               etot_conv_thr = 1.0D-5 ,
               forc_conv_thr = 4.0D-4 ,
                       nstep = 1000 ,
                    dipfield = .true. ,
 /
 &SYSTEM
                       ibrav = 4,
                           A = 9.88 ,
                           C = 15 ,
                         nat = 34,
                        ntyp = 4,
                     ecutwfc = 40.424239707 ,
                     ecutrho = 404.24239707 ,
                 occupations = 'smearing' ,
                     degauss = 0.01 ,
				   input_dft = 'vdW-DF' ,
 /
 &ELECTRONS
            electron_maxstep = 50001,
                    conv_thr = 1.0D-6 ,
                 mixing_mode = 'local-TF' ,
                 mixing_beta = 0.5 ,
 /
ATOMIC_SPECIES
    C   12.01100  C.revpbe-n-kjpaw_psl.0.1.UPF 
    I  126.90400  I.revpbe-n-kjpaw_psl.0.2.UPF 
    O   15.99940  O.revpbe-n-kjpaw_psl.0.1.UPF 
    H   1.008000  H.revpbe-kjpaw_psl.0.1.UPF
ATOMIC_POSITIONS crystal 
C        0.006397044   0.012589674   0.005556559
C        0.258669582   0.019085175   0.007973779
C        0.504608499   0.012147792   0.003610185
C        0.752406921   0.007098419  -0.005534173
C        0.002202708   0.259261514   0.010612644
C        0.088213385   0.179473064   0.003926778
C        0.254835690   0.265941712  -0.008065757
C        0.341176034   0.184547142  -0.004989072
C        0.509327857   0.265944317  -0.004151716
C        0.589718629   0.179038672   0.005714905
C        0.755323914   0.259062996   0.012722659
C        0.835375791   0.172503595   0.007954089
C        0.005627976   0.511665916   0.026493554
C        0.083121993   0.425807592   0.017178442
C        0.244908868   0.510905399   0.000662891
C        0.319476284   0.429088691  -0.020230514
C        0.606560316   0.429605475  -0.009704525
C        0.763747709   0.510724537   0.009024744
C        0.841449619   0.425610005   0.021478069
C        0.011725493   0.766179507   0.021164680
C        0.089902951   0.680134602   0.026284341
C        0.253171736   0.765988103   0.016657939
C        0.329973439   0.680965249   0.000290106
C        0.485897360   0.762891125  -0.021736511
I        0.548920368   0.595811827  -0.061730684
C        0.773371566   0.762351861  -0.011021560
C        0.849006770   0.681168106   0.008559680
C        0.092099423   0.932641182   0.012520427
C        0.338822949   0.932403464   0.010275132
C        0.584649967   0.925672341  -0.008818118
C        0.839216368   0.925749134  -0.004818222
O        0.491825779   0.600357447   0.151773776
O        0.352791771   0.608615211   0.167462887
H        0.460548302   0.493916702   0.171312109
K_POINTS automatic 
  16 16 1   0 0 0 

