 &CONTROL
                 calculation = 'bands' ,
                      outdir = './tmp/' ,
                  pseudo_dir = '/home/deleted/pseudo_psl' ,
                      prefix = 'GBr_op' ,
                   verbosity = 'high' ,
               etot_conv_thr = 1.0D-5 ,
               forc_conv_thr = 4.0D-4 ,
                       nstep = 1000 ,
                    dipfield = .true. ,
 /
 &SYSTEM
                       ibrav = 4,
                           A = 9.88 ,
                           C = 15 ,
                         nat = 33,
                        ntyp = 3,
                     ecutwfc = 40.424239707 ,
                     ecutrho = 404.24239707 ,
                 occupations = 'tetrahedra' ,
                     degauss = 0.01 ,
				   input_dft = 'vdW-DF' ,
 /
 &ELECTRONS
            electron_maxstep = 50001,
                    conv_thr = 1.0D-6 ,
                 mixing_mode = 'local-TF' ,
                 mixing_beta = 0.5 ,
 /
ATOMIC_SPECIES
    C   12.01100  C.revpbe-n-kjpaw_psl.0.1.UPF 
   Br   79.90350  Br.revpbe-n-kjpaw_psl.0.2.UPF 
    O   15.99940  O.revpbe-n-kjpaw_psl.0.1.UPF 
ATOMIC_POSITIONS crystal 
C        0.004893279   0.012467502  -0.004423345
C        0.251071372   0.002142745  -0.004811305
C        0.507574223   0.012467502  -0.004423345
C        0.763802880   0.027605758  -0.004192585
C        0.013848981   0.269043856  -0.004435927
C        0.091248295   0.179644708  -0.004614668
C        0.258168268   0.256333722  -0.005255110
C        0.332231113   0.164462228  -0.005436362
C        0.498165454   0.256333722  -0.005255110
C        0.588396412   0.179644708  -0.004614668
C        0.755194876   0.269043856  -0.004435927
C        0.844995215   0.189990433  -0.004213895
C        0.007161645   0.514323291  -0.004778295
C        0.102314978   0.433836423  -0.004770686
C        0.279961566   0.511667011  -0.005126221
C        0.358057790   0.418491465  -0.005244794
C        0.560433675   0.418491465  -0.005244794
C        0.731705445   0.511667011  -0.005126221
C        0.831521445   0.433836423  -0.004770686
C       -0.006260825   0.758234350  -0.004728207
C        0.088862104   0.677724209  -0.004758034
C        0.264495176   0.758234350  -0.004728207
C        0.364260763   0.680400622  -0.005051149
C        0.535510561   0.773597659  -0.004835144
Br       0.564465868   0.628931738   0.216851803
C        0.738087098   0.773597659  -0.004835144
C        0.816139858   0.680400622  -0.005051149
C        0.082237560   0.923042783  -0.004580763
C        0.340805222   0.923042783  -0.004580763
C        0.597804510   0.935731724  -0.004384936
C        0.837927214   0.935731724  -0.004384936
O        0.439741139   0.379482276   0.259883024
O        0.388510171   0.277020343   0.199690883
K_POINTS crystal_b 
4
0.0000000000    0.0000000000    0.0000000000 17
0.0000000000    0.5000000000    0.0000000000 10
0.3333333333    0.3333333333    0.0000000000 20
0.0000000000    0.0000000000    0.0000000000 1

