 &CONTROL
                 calculation = 'scf' ,
                      outdir = './tmp/' ,
                  pseudo_dir = '/home/deleted/pseudo_psl' ,
                      prefix = 'GCl_ip' ,
                   verbosity = 'high' ,
               etot_conv_thr = 1.0D-5 ,
               forc_conv_thr = 4.0D-4 ,
                       nstep = 1000 ,
                    dipfield = .true. ,
 /
 &SYSTEM
                       ibrav = 4,
                           A = 9.88 ,
                           C = 15 ,
                         nat = 33,
                        ntyp = 3,
                     ecutwfc = 40.424239707 ,
                     ecutrho = 404.24239707 ,
                 occupations = 'smearing' ,
                     degauss = 0.01 ,
				   input_dft = 'vdW-DF' ,
    nspin = 2 ,
    starting_magnetization(1) = 0.5,
    starting_magnetization(2) = 0.5,
    starting_magnetization(3) = 0.5,
 /
 &ELECTRONS
            electron_maxstep = 50001,
                    conv_thr = 1.0D-6 ,
                 mixing_mode = 'local-TF' ,
                 mixing_beta = 0.5 ,
 /
ATOMIC_SPECIES
    C   12.01100  C.revpbe-n-kjpaw_psl.0.1.UPF 
   Cl   35.45200  Cl.revpbe-n-kjpaw_psl.0.3.0.UPF 
    O   15.99940  O.revpbe-n-kjpaw_psl.0.1.UPF 
ATOMIC_POSITIONS (crystal)
C        0.001783525   0.002521900  -0.002208409
C        0.254211082   0.008587981  -0.002211899
C        0.500576282   0.002469910  -0.003016609
C        0.748612812  -0.002567481  -0.003151104
C       -0.001413761   0.249928318  -0.002952517
C        0.084247233   0.169790243  -0.003115729
C        0.252653080   0.257482360  -0.004020744
C        0.337328036   0.174848145  -0.002922502
C        0.504625954   0.257398964  -0.002316414
C        0.585375079   0.169737863  -0.002160156
C        0.751172366   0.249935300  -0.001786476
C        0.831758863   0.163693782  -0.002467872
C        0.000990237   0.502129100  -0.001725057
C        0.079246825   0.416451685  -0.003397198
C        0.243545785   0.501424940  -0.005622006
C        0.323664227   0.421877250  -0.006215751
C        0.597912821   0.421839630  -0.001848227
C        0.757582255   0.501385813  -0.000632125
C        0.837027047   0.416452668  -0.000892882
C        0.006743775   0.755807660  -0.000816430
C        0.084999815   0.670109466  -0.001621016
C        0.248935086   0.755808141  -0.003173032
C        0.328272132   0.670862037  -0.005522948
C        0.487938510   0.750392236  -0.006218549
Cl       0.542878245   0.586113792  -0.005335658
C        0.762271634   0.750452012  -0.001982739
C        0.842362368   0.670881118  -0.000671029
C        0.087390195   0.922327498  -0.001644265
C        0.334782817   0.922331540  -0.002698405
C        0.581300676   0.914790044  -0.004067945
C        0.833371915   0.914878724  -0.002517525
O        0.420499963   0.585654897   0.202913606
O        0.414019781   0.577535804   0.286019610
K_POINTS automatic 
  16 16 1   0 0 0 

