 &CONTROL
                 calculation = 'nscf' ,
                      outdir = './tmp/' ,
                  pseudo_dir = '/home/deleted/pseudo_psl' ,
                      prefix = 'MVG_to' ,
                    dipfield = .true. ,
                   verbosity = 'high',
                       nstep = 1000,
               forc_conv_thr = 4.0D-4,
               etot_conv_thr = 1.0D-5
 /
 &SYSTEM
                       ibrav = 4,
                           A = 9.88 ,
                           C = 15 ,
                         nat = 33,
                        ntyp = 2,
                     ecutwfc = 40.424239707 ,
                     ecutrho = 404.24239707 ,
                 occupations = 'tetrahedra' ,
                     degauss = 0.01 ,
				   input_dft = 'vdW-DF' ,
    nspin = 2 ,
    starting_magnetization(1) = 0.5,
	starting_magnetization(2) = 0.5,
 /
 &ELECTRONS
            electron_maxstep = 50001,
                    conv_thr = 1.0D-6 ,
                 mixing_mode = 'local-TF' ,
                 mixing_beta = 0.5 ,
 /
 &IONS
                ion_dynamics = 'bfgs' ,
 /
ATOMIC_SPECIES
    C   12.01100  C.revpbe-n-kjpaw_psl.0.1.UPF 
    O   15.99940  O.revpbe-n-kjpaw_psl.0.1.UPF 
ATOMIC_POSITIONS crystal 
C       -0.000918512  -0.001120150  -0.007260565
C        0.251653344   0.003306687  -0.007039663
C        0.499798363  -0.001120150  -0.007260565
C        0.748343639  -0.003312723  -0.007856296
C       -0.001349839   0.248741795  -0.006779855
C        0.082847679   0.166850097  -0.007045460
C        0.252044479   0.254170864  -0.007112623
C        0.334758639   0.169517278  -0.007156300
C        0.502126386   0.254170864  -0.007112623
C        0.584002417   0.166850097  -0.007045460
C        0.750091635   0.248741795  -0.006779855
C        0.832119950   0.164239902  -0.007122622
C        0.000038798   0.500077595  -0.006197750
C        0.080813665   0.415382097  -0.006378884
C        0.247214205   0.500177697  -0.006679422
C        0.325550246   0.418219622  -0.006967622
C        0.592669374   0.418219622  -0.006967622
C        0.752963492   0.500177697  -0.006679422
C        0.834568430   0.415382097  -0.006378884
C        0.000674833   0.750883593  -0.006703723
C        0.083380943   0.666761888  -0.006341876
C        0.250208760   0.750883593  -0.006703723
C        0.331060552   0.667070266  -0.007026976
C        0.497707377   0.743185052  -0.007871522
C        0.580532365   0.661064732  -0.008324513
C        0.745477675   0.743185052  -0.007871522
C        0.836009714   0.667070266  -0.007026976
C        0.084215506   0.918271649  -0.007012635
C        0.334056142   0.918271649  -0.007012635
C        0.582315712   0.913069044  -0.007774869
C        0.830753331   0.913069044  -0.007774869
O        0.733806034   0.840937363   0.209633666
O        0.607131328   0.840937363   0.209633666
K_POINTS automatic 
  20 20 1   0 0 0 

