 &CONTROL
                 calculation = 'nscf' ,
                      outdir = './tmp/' ,
                  pseudo_dir = '/home/deleted/pseudo_psl' ,
                      prefix = 'GF_ip' ,
                   verbosity = 'high' ,
               etot_conv_thr = 1.0D-5 ,
               forc_conv_thr = 4.0D-4 ,
                       nstep = 1000 ,
                    dipfield = .true. ,
 /
 &SYSTEM
                       ibrav = 4,
                           A = 9.88 ,
                           C = 15 ,
                         nat = 32,
                        ntyp = 3,
                     ecutwfc = 40.424239707 ,
                     ecutrho = 404.24239707 ,
                 occupations = 'tetrahedra' ,
                     degauss = 0.01 ,
				   input_dft = 'vdW-DF' ,
    nspin = 2 ,
    starting_magnetization(1) = 0.5,
    starting_magnetization(2) = 0.5,
    starting_magnetization(3) = 0.5,
 /
 &ELECTRONS
            electron_maxstep = 50001,
                    conv_thr = 1.0D-6 ,
                 mixing_mode = 'local-TF' ,
                 mixing_beta = 0.5 ,
 /
ATOMIC_SPECIES
    C   12.01100  C.revpbe-n-kjpaw_psl.0.1.UPF 
    F   18.99800  F.revpbe-n-kjpaw_psl.0.1.UPF 
    O   15.99940  O.revpbe-n-kjpaw_psl.0.1.UPF 
ATOMIC_POSITIONS (crystal)
C       -0.000340358   0.000168485  -0.001606844
C        0.246561745  -0.005142081   0.006199760
C        0.498427143   0.000720563   0.010005431
C        0.748040713   0.002199862  -0.000933878
C        0.000915650   0.251257187  -0.001754526
C        0.083149385   0.167190660   0.001801254
C        0.251067074   0.248571808   0.003633444
C        0.328115961   0.158902085   0.004701466
C        0.493722345   0.247848020   0.002615021
C        0.580328291   0.167101464   0.002672310
C        0.746523415   0.251324220   0.000257655
C        0.832160382   0.168664133  -0.001902252
C       -0.002372134   0.498963245  -0.000164846
C        0.087066089   0.417185004   0.001108668
C        0.262065368   0.500336844   0.008849178
C        0.343648603   0.410674432   0.004616940
C        0.563575726   0.410700370  -0.001406857
C        0.733201538   0.498673951  -0.007841974
C        0.825709059   0.417224956  -0.002613226
C       -0.004352738   0.747728895  -0.001926001
C        0.080488299   0.664553956   0.003072641
C        0.247928082   0.745967050   0.011307054
C        0.333074095   0.665410702   0.020136493
C        0.497740701   0.757924207   0.048799199
F        0.621406587   0.691718176  -0.076140132
C        0.763369470   0.761010905  -0.034062181
C        0.828719817   0.667332615  -0.015401454
C        0.079328956   0.913326806   0.000788817
C        0.330837358   0.913761390   0.011572447
C        0.584452952   0.921677948   0.015553726
C        0.834179036   0.920123416  -0.012726375
O        0.557493242   0.704909684   0.100789043
K_POINTS automatic 
  20 20 1   0 0 0 

