 &CONTROL
                 calculation = 'scf' ,
                      outdir = './tmp/' ,
                  pseudo_dir = '/home/deleted/pseudo_psl' ,
                      prefix = 'GBr_ip' ,
                   verbosity = 'high' ,
               etot_conv_thr = 1.0D-5 ,
               forc_conv_thr = 4.0D-4 ,
                       nstep = 1000 ,
                    dipfield = .true. ,
 /
 &SYSTEM
                       ibrav = 4,
                           A = 9.88 ,
                           C = 15 ,
                         nat = 33,
                        ntyp = 3,
                     ecutwfc = 40.424239707 ,
                     ecutrho = 404.24239707 ,
                 occupations = 'smearing' ,
                     degauss = 0.01 ,
				   input_dft = 'vdW-DF' ,
    nspin = 2 ,
    starting_magnetization(1) = 0.5,
    starting_magnetization(2) = 0.5,
    starting_magnetization(3) = -0.2,
 /
 &ELECTRONS
            electron_maxstep = 50001,
                    conv_thr = 1.0D-6 ,
                 mixing_mode = 'local-TF' ,
                 mixing_beta = 0.5 ,
 /
ATOMIC_SPECIES
    C   12.01100  C.revpbe-n-kjpaw_psl.0.1.UPF 
   Br   79.90350  Br.revpbe-n-kjpaw_psl.0.2.UPF 
    O   15.99940  O.revpbe-n-kjpaw_psl.0.1.UPF 
ATOMIC_POSITIONS (crystal)
C        0.002227141   0.002733264   0.002572606
C        0.254715069   0.009430137   0.005993449
C        0.500506123   0.002733264   0.002572606
C        0.748741858  -0.002516284  -0.004113383
C       -0.001626935   0.249679051   0.007855856
C        0.084085036   0.169827782   0.002347409
C        0.251645906   0.256754094  -0.005975848
C        0.337540737   0.175081474  -0.004321893
C        0.505108189   0.256754094  -0.005975848
C        0.585742744   0.169827782   0.002347409
C        0.751305987   0.249679051   0.007855856
C        0.831587121   0.163174242   0.005795716
C        0.001099712   0.502199425   0.019078436
C        0.079005416   0.416340015   0.013178478
C        0.241822345   0.501205065   0.000978175
C        0.318020746   0.419823398  -0.014510491
C        0.601802650   0.419823398  -0.014510491
C        0.759382719   0.501205065   0.000978175
C        0.837334598   0.416340015   0.013178478
C        0.007243738   0.756168225   0.013485630
C        0.085147296   0.670294592   0.019203573
C        0.248924489   0.756168225   0.013485630
C        0.326861040   0.671245716   0.001324062
C        0.484577872   0.752597628  -0.013638541
Br       0.543179625   0.586359250  -0.039620121
C        0.768019756   0.752597628  -0.013638541
C        0.844384675   0.671245716   0.001324062
C        0.087913841   0.922867809   0.008181896
C        0.334953967   0.922867809   0.008181896
C        0.581161862   0.915771016  -0.005502478
C        0.834609153   0.915771016  -0.005502478
O        0.534192410   0.568384820   0.180468345
O        0.462116444   0.424232889   0.196922374
K_POINTS automatic 
  16 16 1   0 0 0 

